LAMMPS (22 Jul 2025 - Update 4)
# ===================================================================
# DATASET SILICIO - STILE PANNA ESTESO (solido + liquido, NVE)
# ===================================================================

units           metal
dimension       3
boundary        p p p
atom_style      atomic

# Cella cubica con parametro reticolare 16.053 Å (densità fase liquida SW)
lattice         diamond 5.351
Lattice spacing in x,y,z = 5.351 5.351 5.351
region          box block 0 3 0 3 0 3
create_box      1 box
Created orthogonal box = (0 0 0) to (16.053 16.053 16.053)
  2 by 2 by 2 MPI processor grid
create_atoms    1 box
Created 216 atoms
  using lattice units in orthogonal box = (0 0 0) to (16.053 16.053 16.053)
  create_atoms CPU = 0.001 seconds
mass            1 28.0855

pair_style      sw
pair_coeff      * * Si.sw Si
Reading sw potential file Si.sw with DATE: 2007-06-11

timestep        0.001

compute         pe_atom all pe/atom
thermo          1000
thermo_style    custom step temp pe ke etotal press vol

# ===================================================================
# FASE 1: Equilibrazione NVT a 300 K (fase solida cristallina)
# ===================================================================
velocity        all create 300.0 12345 dist gaussian
fix             eq all nvt temp 300.0 300.0 0.1
run             50000
Neighbor list info ...
  update: every = 1 steps, delay = 0 steps, check = yes
  max neighbors/atom: 2000, page size: 100000
  master list distance cutoff = 5.77118
  ghost atom cutoff = 5.77118
  binsize = 2.88559, bins = 6 6 6
  1 neighbor lists, perpetual/occasional/extra = 1 0 0
  (1) pair sw, perpetual
      attributes: full, newton on
      pair build: full/bin/atomonly
      stencil: full/bin/3d
      bin: standard
Per MPI rank memory allocation (min/avg/max) = 3.187 | 3.187 | 3.187 Mbytes
   Step          Temp          PotEng         KinEng         TotEng         Press          Volume    
         0   300           -933.95807      8.3372794     -925.62079      50318.655      4136.839     
      1000   320.74747     -926.94562      8.9138709     -918.03174      51891.776      4136.839     
      2000   293.15521     -925.55562      8.1470562     -917.40856      51281.822      4136.839     
      3000   308.05377     -925.78314      8.561101      -917.22204      51473.018      4136.839     
      4000   318.84845     -927.12436      8.8610952     -918.26327      51760.33       4136.839     
      5000   334.87873     -925.9007       9.3065917     -916.59411      52268.222      4136.839     
      6000   324.92592     -925.53006      9.029994      -916.50006      52402.998      4136.839     
      7000   307.78282     -925.99565      8.5535713     -917.44207      51547.717      4136.839     
      8000   316.33792     -925.10934      8.7913253     -916.31802      51727.19       4136.839     
      9000   309.47861     -926.40892      8.6006987     -917.80822      51519.126      4136.839     
     10000   285.42904     -926.12443      7.9323387     -918.1921       51751.262      4136.839     
     11000   311.95605     -925.45877      8.6695492     -916.78922      51963.393      4136.839     
     12000   287.80769     -926.06318      7.9984438     -918.06474      51661.913      4136.839     
     13000   301.81711     -925.86895      8.3877785     -917.48118      51833.952      4136.839     
     14000   336.16628     -925.28195      9.342374      -915.93957      52309.176      4136.839     
     15000   304.83736     -925.9117       8.4717142     -917.43998      51777.68       4136.839     
     16000   326.35962     -925.9619       9.0698378     -916.89206      51806.561      4136.839     
     17000   289.7345      -925.80277      8.0519916     -917.75078      51971.759      4136.839     
     18000   324.32968     -926.02429      9.0134238     -917.01086      51995.272      4136.839     
     19000   293.71687     -925.29788      8.1626653     -917.13521      52122.058      4136.839     
     20000   276.25711     -925.62782      7.6774423     -917.95038      51698.084      4136.839     
     21000   310.8642      -925.4841       8.6392055     -916.8449       52070.044      4136.839     
     22000   276.83523     -925.84992      7.6935089     -918.15641      51739.569      4136.839     
     23000   307.70024     -925.16093      8.5512763     -916.60966      51938.278      4136.839     
     24000   274.28061     -925.54516      7.6225136     -917.92265      51584.628      4136.839     
     25000   314.45047     -925.56602      8.7388715     -916.82714      52081.271      4136.839     
     26000   286.70666     -925.67702      7.9678451     -917.70918      51730.37       4136.839     
     27000   333.04063     -925.75036      9.2555092     -916.49485      52151.386      4136.839     
     28000   312.989       -926.11745      8.6982558     -917.4192       51754.876      4136.839     
     29000   299.65177     -926.64126      8.3276018     -918.31366      51493.91       4136.839     
     30000   305.09009     -925.42749      8.4787378     -916.94875      51711.219      4136.839     
     31000   283.54984     -926.99546      7.880114      -919.11535      51484.141      4136.839     
     32000   325.25736     -925.82007      9.0392049     -916.78086      52019.335      4136.839     
     33000   299.77575     -925.46539      8.3310471     -917.13435      51979.23       4136.839     
     34000   284.16709     -924.52187      7.8972679     -916.6246       51799.236      4136.839     
     35000   312.75091     -925.12137      8.6916391     -916.42973      51910.969      4136.839     
     36000   284.47805     -924.74589      7.9059098     -916.83998      51978.702      4136.839     
     37000   289.99443     -925.37498      8.0592153     -917.31576      51886.848      4136.839     
     38000   311.24639     -925.36142      8.6498269     -916.71159      52132.686      4136.839     
     39000   296.84963     -925.45951      8.2497278     -917.20978      51941.632      4136.839     
     40000   282.71133     -925.08683      7.8568111     -917.23002      51867.631      4136.839     
     41000   285.99467     -925.52574      7.9480581     -917.57768      51843.921      4136.839     
     42000   263.28971     -925.3344       7.3170663     -918.01733      51776.415      4136.839     
     43000   301.84127     -925.49161      8.3884499     -917.10316      51918.522      4136.839     
     44000   275.66372     -925.35959      7.6609514     -917.69864      51842.615      4136.839     
     45000   295.57319     -924.51526      8.2142541     -916.301        52018.652      4136.839     
     46000   304.65411     -925.80001      8.4666214     -917.33339      51740.734      4136.839     
     47000   296.09572     -926.06264      8.2287757     -917.83386      51595.458      4136.839     
     48000   300.82079     -924.9473       8.3600897     -916.58721      51988.98       4136.839     
     49000   274.23114     -925.61973      7.6211388     -917.99859      51410.741      4136.839     
     50000   296.41446     -925.04203      8.2376338     -916.8044       51906.688      4136.839     
Loop time of 10.2691 on 8 procs for 50000 steps with 216 atoms

Performance: 420.680 ns/day, 0.057 hours/ns, 4868.987 timesteps/s, 1.052 Matom-step/s
94.8% CPU use with 8 MPI tasks x no OpenMP threads

MPI task timing breakdown:
Section |  min time  |  avg time  |  max time  |%varavg| %total
---------------------------------------------------------------
Pair    | 3.4258     | 3.5568     | 3.675      |   5.1 | 34.64
Neigh   | 0          | 0          | 0          |   0.0 |  0.00
Comm    | 5.2244     | 5.3457     | 5.5117     |   4.3 | 52.06
Output  | 0.00099696 | 0.0013795  | 0.0024267  |   1.1 |  0.01
Modify  | 0.84632    | 0.87584    | 0.91292    |   2.5 |  8.53
Other   |            | 0.4894     |            |       |  4.77

Nlocal:             27 ave          28 max          26 min
Histogram: 4 0 0 0 0 0 0 0 0 4
Nghost:          400.5 ave         401 max         400 min
Histogram: 4 0 0 0 0 0 0 0 0 4
Neighs:              0 ave           0 max           0 min
Histogram: 8 0 0 0 0 0 0 0 0 0
FullNghs:          918 ave         952 max         884 min
Histogram: 4 0 0 0 0 0 0 0 0 4

Total # of neighbors = 7344
Ave neighs/atom = 34
Neighbor list builds = 0
Dangerous builds = 0
unfix           eq

# Raccolta dati solido cristallino in NVE (~5000 frame)
dump            dump_solid all custom 1 dataset_solid.dump id type x y z fx fy fz c_pe_atom
dump_modify     dump_solid sort id every 76
fix             prod all nve
run             380000          # 380000 / 76 = 5000 snapshot
Per MPI rank memory allocation (min/avg/max) = 3.203 | 3.203 | 3.203 Mbytes
   Step          Temp          PotEng         KinEng         TotEng         Press          Volume    
     50000   296.41446     -925.04203      8.2376338     -916.8044       51906.688      4136.839     
     51000   300.9836      -925.16969      8.3646146     -916.80507      51863.561      4136.839     
     52000   307.01681     -925.33752      8.532283      -916.80524      51815.719      4136.839     
     53000   305.29883     -925.28948      8.4845388     -916.80494      51716.748      4136.839     
     54000   311.00618     -925.44803      8.6431514     -916.80488      51734.513      4136.839     
     55000   301.72485     -925.18998      8.3852146     -916.80476      51690.248      4136.839     
     56000   300.17917     -925.14709      8.3422588     -916.80483      51688.327      4136.839     
     57000   303.80062     -925.24713      8.4429022     -916.80422      51728.882      4136.839     
     58000   306.05438     -925.30986      8.5055362     -916.80432      51958.918      4136.839     
     59000   301.01575     -925.17056      8.3655081     -916.80506      51665.458      4136.839     
     60000   297.80367     -925.0812       8.2762412     -916.80496      51710.234      4136.839     
     61000   304.52072     -925.26803      8.4629145     -916.80512      51740.454      4136.839     
     62000   305.06154     -925.28278      8.4779442     -916.80484      52040.53       4136.839     
     63000   282.73729     -924.66096      7.8575326     -916.80343      52007.786      4136.839     
     64000   309.12512     -925.39612      8.5908751     -916.80525      51775.459      4136.839     
     65000   308.189       -925.37043      8.5648593     -916.80557      51857.753      4136.839     
     66000   315.03181     -925.56111      8.7550272     -916.80608      51776.292      4136.839     
     67000   321.56506     -925.74237      8.9365925     -916.80578      51717.953      4136.839     
     68000   303.61785     -925.24273      8.4378227     -916.80491      51887.757      4136.839     
     69000   316.09103     -925.58993      8.7844642     -916.80547      51804.061      4136.839     
     70000   311.67781     -925.46673      8.6618167     -916.80492      51908.557      4136.839     
     71000   300.48579     -925.15527      8.3507798     -916.8045       51903.29       4136.839     
     72000   309.02408     -925.39333      8.588067      -916.80526      51786.698      4136.839     
     73000   319.05634     -925.67218      8.8668729     -916.80531      51866.59       4136.839     
     74000   295.10606     -925.0056       8.2012721     -916.80432      51961.411      4136.839     
     75000   311.1678      -925.45311      8.647643      -916.80547      51798.282      4136.839     
     76000   322.55965     -925.77015      8.9642329     -916.80591      51968.353      4136.839     
     77000   305.84157     -925.30452      8.4996221     -916.8049       51960.845      4136.839     
     78000   300.8987      -925.1672       8.362255      -916.80495      51871.784      4136.839     
     79000   328.44121     -925.93354      9.127687      -916.80585      51977.987      4136.839     
     80000   313.99777     -925.53128      8.7262904     -916.80499      51964.36       4136.839     
     81000   314.14693     -925.53599      8.7304356     -916.80556      51607.265      4136.839     
     82000   313.76955     -925.52471      8.7199481     -916.80477      51900.485      4136.839     
     83000   326.63998     -925.88289      9.0776293     -916.80526      52047.09       4136.839     
     84000   315.80872     -925.58207      8.7766183     -916.80545      51704.725      4136.839     
     85000   315.26727     -925.56724      8.761571      -916.80567      51537.132      4136.839     
     86000   308.34363     -925.37417      8.5691565     -916.80501      51729.666      4136.839     
     87000   307.51348     -925.35081      8.546086      -916.80472      51895.842      4136.839     
     88000   318.58274     -925.6598       8.8537111     -916.80609      51612.547      4136.839     
     89000   287.71163     -924.79954      7.9957741     -916.80376      51837.195      4136.839     
     90000   300.37019     -925.15174      8.3475674     -916.80417      51783.414      4136.839     
     91000   299.31991     -925.12304      8.318379      -916.80466      51782.806      4136.839     
     92000   301.31906     -925.17909      8.3739373     -916.80515      51558.93       4136.839     
     93000   287.51458     -924.79461      7.990298      -916.80432      51690.248      4136.839     
     94000   302.73947     -925.21833      8.4134118     -916.80492      51845.999      4136.839     
     95000   310.50453     -925.43456      8.62921       -916.80535      51723.006      4136.839     
     96000   301.92395     -925.19525      8.3907476     -916.8045       51766.042      4136.839     
     97000   284.89415     -924.72152      7.9174738     -916.80405      51551.38       4136.839     
     98000   296.68078     -925.04936      8.2450352     -916.80433      51650.798      4136.839     
     99000   313.05985     -925.50517      8.7002248     -916.80494      51765.849      4136.839     
    100000   322.42508     -925.76604      8.9604933     -916.80555      51718.289      4136.839     
    101000   312.80578     -925.49841      8.693164      -916.80524      51639.36       4136.839     
    102000   310.19105     -925.42638      8.6204981     -916.80588      51515.803      4136.839     
    103000   307.61223     -925.35437      8.5488305     -916.80554      51391.291      4136.839     
    104000   315.86509     -925.5833       8.7781851     -916.80511      51810.4        4136.839     
    105000   324.61263     -925.82683      9.0212871     -916.80554      51710.747      4136.839     
    106000   305.67832     -925.29984      8.4950851     -916.80476      51599.683      4136.839     
    107000   292.79829     -924.94161      8.1371372     -916.80447      51433.958      4136.839     
    108000   301.77093     -925.19106      8.3864952     -916.80457      51486.32       4136.839     
    109000   315.81506     -925.58247      8.7767945     -916.80568      51539.735      4136.839     
    110000   313.86205     -925.52814      8.7225186     -916.80562      51491.838      4136.839     
    111000   325.18032     -925.84231      9.0370638     -916.80524      51574.881      4136.839     
    112000   325.78461     -925.85978      9.0538577     -916.80592      51509.09       4136.839     
    113000   311.5372      -925.46318      8.6579088     -916.80527      51492.605      4136.839     
    114000   320.00713     -925.69871      8.8932962     -916.80542      51716.824      4136.839     
    115000   329.1703      -925.95375      9.147949      -916.8058       51640.293      4136.839     
    116000   308.55277     -925.37964      8.5749688     -916.80467      51662.554      4136.839     
    117000   301.8813      -925.19375      8.3895625     -916.80419      51661.051      4136.839     
    118000   333.10052     -926.06256      9.2571735     -916.80539      51939.026      4136.839     
    119000   321.73636     -925.74714      8.9413529     -916.80578      51653.443      4136.839     
    120000   300.60581     -925.15888      8.3541152     -916.80477      51475.198      4136.839     
    121000   331.24672     -926.01133      9.2056549     -916.80568      51815.295      4136.839     
    122000   310.11979     -925.42336      8.6185178     -916.80484      51874.055      4136.839     
    123000   317.17457     -925.62047      8.8145765     -916.80589      51728.902      4136.839     
    124000   328.43978     -925.93384      9.1276474     -916.8062       51727.685      4136.839     
    125000   301.81763     -925.19237      8.3877929     -916.80457      51579.705      4136.839     
    126000   302.2289      -925.20414      8.3992225     -916.80492      51436.152      4136.839     
    127000   322.48325     -925.7682       8.9621098     -916.80609      51745.667      4136.839     
    128000   314.95418     -925.55795      8.7528699     -916.80508      51724.607      4136.839     
    129000   297.55566     -925.0738       8.2693488     -916.80445      51725.325      4136.839     
    130000   303.98266     -925.2526       8.4479611     -916.80464      51857.854      4136.839     
    131000   296.42975     -925.04213      8.2380587     -916.80407      51889.942      4136.839     
    132000   314.12309     -925.53483      8.7297732     -916.80505      51818.377      4136.839     
    133000   305.66467     -925.30034      8.4947059     -916.80563      51439.392      4136.839     
    134000   305.38309     -925.29182      8.4868803     -916.80494      51766.784      4136.839     
    135000   311.60909     -925.46415      8.6599069     -916.80424      51839.042      4136.839     
    136000   311.50015     -925.46238      8.6568793     -916.8055       51746.579      4136.839     
    137000   298.01583     -925.08672      8.2821373     -916.80459      51667.84       4136.839     
    138000   301.36873     -925.17935      8.3753177     -916.80403      51759.171      4136.839     
    139000   297.04076     -925.05925      8.2550393     -916.80421      51877.587      4136.839     
    140000   292.28871     -924.92778      8.1229755     -916.80481      51633.957      4136.839     
    141000   316.53298     -925.60212      8.7967463     -916.80537      51684.23       4136.839     
    142000   306.9506      -925.33464      8.5304431     -916.8042       51865.987      4136.839     
    143000   291.58244     -924.90719      8.1033474     -916.80384      51670.986      4136.839     
    144000   294.18072     -924.98039      8.1755563     -916.80483      51685.911      4136.839     
    145000   303.41489     -925.2368       8.4321824     -916.80462      51712.264      4136.839     
    146000   294.21151     -924.98086      8.1764117     -916.80445      51475.313      4136.839     
    147000   306.14064     -925.31258      8.5079335     -916.80465      51592.034      4136.839     
    148000   292.86302     -924.94221      8.1389359     -916.80327      52023.223      4136.839     
    149000   295.62589     -925.02025      8.2157187     -916.80453      51733.402      4136.839     
    150000   296.41571     -925.04304      8.2376687     -916.80537      51558.69       4136.839     
    151000   311.26647     -925.45599      8.650385      -916.8056       51808.826      4136.839     
    152000   295.83815     -925.02567      8.2216177     -916.80405      51772.902      4136.839     
    153000   292.02334     -924.9199       8.1156005     -916.8043       51857.171      4136.839     
    154000   300.23165     -925.14817      8.3437172     -916.80445      51904.556      4136.839     
    155000   307.94495     -925.3629       8.5580768     -916.80482      51882.498      4136.839     
    156000   296.40274     -925.04159      8.2373082     -916.80428      51833.28       4136.839     
    157000   292.58236     -924.93528      8.1311361     -916.80414      51694.787      4136.839     
    158000   317.01891     -925.61555      8.8102508     -916.8053       51693.646      4136.839     
    159000   311.78585     -925.46968      8.6648191     -916.80486      51863.329      4136.839     
    160000   304.46145     -925.26588      8.4612672     -916.80461      51804.052      4136.839     
    161000   303.90644     -925.24978      8.4458428     -916.80394      51699.822      4136.839     
    162000   299.5817      -925.13049      8.3256545     -916.80483      51539.827      4136.839     
    163000   297.97299     -925.08581      8.280947      -916.80486      51573.305      4136.839     
    164000   314.3846      -925.54228      8.7370407     -916.80524      51969.811      4136.839     
    165000   327.24022     -925.89993      9.0943103     -916.80562      51958.92       4136.839     
    166000   294.05177     -924.97664      8.1719726     -916.80467      51629.451      4136.839     
    167000   295.38936     -925.0136       8.2091454     -916.80445      51808.824      4136.839     
    168000   300.53822     -925.15633      8.3522371     -916.80409      51948.055      4136.839     
    169000   298.23412     -925.09242      8.2882038     -916.80421      51841.254      4136.839     
    170000   288.90634     -924.83275      8.0289762     -916.80378      51666.379      4136.839     
    171000   300.82594     -925.16478      8.3602329     -916.80455      51816.134      4136.839     
    172000   317.84214     -925.63847      8.8331291     -916.80534      52011.461      4136.839     
    173000   297.977       -925.08506      8.2810582     -916.80401      51772.585      4136.839     
    174000   289.48514     -924.84859      8.0450617     -916.80353      51866.377      4136.839     
    175000   281.03162     -924.61371      7.8101305     -916.80358      51594.366      4136.839     
    176000   286.94254     -924.77842      7.9744003     -916.80402      51722.898      4136.839     
    177000   306.5254      -925.32302      8.5186264     -916.80439      51933.684      4136.839     
    178000   311.97115     -925.47459      8.6699688     -916.80462      52012.685      4136.839     
    179000   316.76069     -925.60833      8.8030745     -916.80526      52084.994      4136.839     
    180000   307.39591     -925.3481       8.5428186     -916.80528      51874.939      4136.839     
    181000   302.28639     -925.20598      8.4008203     -916.80516      51767.246      4136.839     
    182000   308.59774     -925.38142      8.5762186     -916.8052       51626.814      4136.839     
    183000   306.60545     -925.32514      8.520851      -916.80429      51835.09       4136.839     
    184000   336.01745     -926.14355      9.3382377     -916.80531      52135.969      4136.839     
    185000   304.20368     -925.25824      8.4541035     -916.80413      51824.574      4136.839     
    186000   291.98724     -924.91893      8.1145972     -916.80433      51477.52       4136.839     
    187000   302.43626     -925.20999      8.4049851     -916.80501      51463.472      4136.839     
    188000   284.06571     -924.69824      7.8944506     -916.80379      51476.961      4136.839     
    189000   309.58255     -925.40883      8.6035875     -916.80524      51772.753      4136.839     
    190000   304.19073     -925.25822      8.4537437     -916.80447      51930.84       4136.839     
    191000   308.38092     -925.37538      8.5701928     -916.80518      51781.968      4136.839     
    192000   293.43099     -924.95971      8.1547206     -916.80498      51540.858      4136.839     
    193000   296.01207     -925.03134      8.2264512     -916.80489      51491.257      4136.839     
    194000   293.66879     -924.96617      8.161329      -916.80484      51671.798      4136.839     
    195000   307.85109     -925.36082      8.5554684     -916.80536      51893.57       4136.839     
    196000   321.08756     -925.72863      8.9233222     -916.80531      51989.34       4136.839     
    197000   299.1111      -925.11732      8.3125759     -916.80474      51596.016      4136.839     
    198000   297.92662     -925.0845       8.2796583     -916.80484      51621.924      4136.839     
    199000   316.75278     -925.60854      8.8028546     -916.80568      51736.931      4136.839     
    200000   312.27395     -925.48325      8.6783838     -916.80487      51900.296      4136.839     
    201000   295.88848     -925.02727      8.2230165     -916.80425      51786.072      4136.839     
    202000   300.83967     -925.16412      8.3606147     -916.8035       52004.128      4136.839     
    203000   322.64315     -925.77183      8.9665535     -916.80527      51940.201      4136.839     
    204000   326.27254     -925.8734       9.0674178     -916.80598      51760.495      4136.839     
    205000   289.45127     -924.84795      8.0441204     -916.80383      51776.534      4136.839     
    206000   320.62325     -925.71627      8.9104186     -916.80585      51789.251      4136.839     
    207000   300.96962     -925.16856      8.3642261     -916.80433      51857.882      4136.839     
    208000   296.05568     -925.03142      8.2276631     -916.80375      51890.765      4136.839     
    209000   311.85357     -925.4715       8.6667012     -916.8048       51885.855      4136.839     
    210000   283.58135     -924.68515      7.8809898     -916.80416      51741.835      4136.839     
    211000   298.93281     -925.1125       8.3076212     -916.80488      51751.04       4136.839     
    212000   295.92711     -925.02787      8.2240899     -916.80378      51957.233      4136.839     
    213000   294.38752     -924.98472      8.1813033     -916.80342      51904.236      4136.839     
    214000   306.85231     -925.33226      8.5277115     -916.80455      51868.482      4136.839     
    215000   303.50764     -925.23914      8.43476       -916.80438      51819.921      4136.839     
    216000   297.66158     -925.07608      8.2722925     -916.80379      51878.97       4136.839     
    217000   306.16936     -925.31318      8.5087315     -916.80444      51710.655      4136.839     
    218000   308.63018     -925.38114      8.5771202     -916.80402      51910.967      4136.839     
    219000   311.69332     -925.46691      8.6622477     -916.80466      51751.594      4136.839     
    220000   318.55919     -925.658        8.8530566     -916.80495      51780.769      4136.839     
    221000   291.62559     -924.90816      8.1045468     -916.80361      51771.784      4136.839     
    222000   292.88858     -924.94331      8.1396464     -916.80367      51795.912      4136.839     
    223000   279.80494     -924.57918      7.7760397     -916.80314      51959.943      4136.839     
    224000   299.25917     -925.12134      8.316691      -916.80465      51869.979      4136.839     
    225000   299.47779     -925.12748      8.3227666     -916.80472      51646.364      4136.839     
    226000   293.00038     -924.94687      8.1427534     -916.80411      51720.409      4136.839     
    227000   296.44943     -925.04337      8.2386056     -916.80476      51783.773      4136.839     
    228000   308.45235     -925.37767      8.572178      -916.8055       51632.678      4136.839     
    229000   286.89009     -924.77728      7.9729427     -916.80434      51751.1        4136.839     
    230000   298.29781     -925.09457      8.2899738     -916.80459      51639.747      4136.839     
    231000   306.25765     -925.31555      8.5111852     -916.80437      51939.976      4136.839     
    232000   322.76444     -925.77592      8.9699244     -916.80599      51696.175      4136.839     
    233000   311.51101     -925.46255      8.6571809     -916.80537      51555.172      4136.839     
    234000   299.04114     -925.11463      8.3106317     -916.80399      51648.554      4136.839     
    235000   317.4526      -925.62687      8.8223035     -916.80456      51930.72       4136.839     
    236000   305.14442     -925.28502      8.4802475     -916.80478      51727.089      4136.839     
    237000   304.60527     -925.27055      8.4652642     -916.80528      51619.422      4136.839     
    238000   278.58038     -924.54615      7.7420082     -916.80414      51652.117      4136.839     
    239000   310.7369      -925.44133      8.6356677     -916.80566      51584.639      4136.839     
    240000   288.00888     -924.80813      8.0040349     -916.8041       51761.609      4136.839     
    241000   326.71945     -925.88576      9.0798377     -916.80592      51904.096      4136.839     
    242000   299.7121      -925.13458      8.3292782     -916.8053       51686.979      4136.839     
    243000   293.10416     -924.95054      8.1456375     -916.8049       51514.353      4136.839     
    244000   297.60115     -925.07534      8.270613      -916.80473      51684.788      4136.839     
    245000   309.92679     -925.41815      8.613154      -916.805        51979.592      4136.839     
    246000   323.5968      -925.79809      8.9930564     -916.80503      51854.721      4136.839     
    247000   317.71756     -925.63476      8.8296667     -916.80509      51971.408      4136.839     
    248000   299.21597     -925.11986      8.3154906     -916.80437      51755.057      4136.839     
    249000   308.40096     -925.37546      8.5707499     -916.80471      51784.348      4136.839     
    250000   300.78099     -925.16369      8.3589837     -916.8047       51641.968      4136.839     
    251000   301.81086     -925.19251      8.387605      -916.80491      51627.367      4136.839     
    252000   297.55834     -925.07373      8.2694232     -916.80431      51946.904      4136.839     
    253000   319.48595     -925.68369      8.8788122     -916.80488      52261.005      4136.839     
    254000   284.02247     -924.69755      7.8932488     -916.8043       51629.349      4136.839     
    255000   274.50553     -924.43281      7.6287642     -916.80405      51612.488      4136.839     
    256000   301.99658     -925.19849      8.3927663     -916.80573      51606.965      4136.839     
    257000   317.70165     -925.63433      8.8292248     -916.80511      51944.546      4136.839     
    258000   320.7344      -925.71858      8.9135077     -916.80508      51942.33       4136.839     
    259000   334.78337     -926.11092      9.3039416     -916.80698      51761.893      4136.839     
    260000   294.02034     -924.97566      8.171099      -916.80457      51451.485      4136.839     
    261000   295.55905     -925.01785      8.2138611     -916.80399      51543.102      4136.839     
    262000   319.74373     -925.6911       8.885976      -916.80512      51722.087      4136.839     
    263000   338.5232      -926.21396      9.407875      -916.80608      51785.659      4136.839     
    264000   316.96622     -925.61369      8.8087865     -916.80491      51801.498      4136.839     
    265000   318.49102     -925.65588      8.8511621     -916.80472      51851.39       4136.839     
    266000   338.24893     -926.20686      9.4002527     -916.80661      51767.258      4136.839     
    267000   307.99519     -925.365        8.5594733     -916.80552      51601.799      4136.839     
    268000   301.06802     -925.17185      8.3669607     -916.80489      51697.68       4136.839     
    269000   302.03518     -925.19763      8.393839      -916.80379      52031.592      4136.839     
    270000   322.35578     -925.76411      8.9585673     -916.80554      51885.845      4136.839     
    271000   287.87388     -924.8045       8.0002832     -916.80421      51604.18       4136.839     
    272000   292.45096     -924.93237      8.1274846     -916.80489      51521.945      4136.839     
    273000   317.36632     -925.62594      8.8199054     -916.80604      51563.345      4136.839     
    274000   313.25588     -925.51133      8.7056725     -916.80566      51652.611      4136.839     
    275000   321.94377     -925.75246      8.9471171     -916.80535      51783.433      4136.839     
    276000   306.96868     -925.33505      8.5309454     -916.8041       51748.327      4136.839     
    277000   310.11321     -925.42357      8.618335      -916.80523      51490.855      4136.839     
    278000   304.83619     -925.27588      8.4716816     -916.80419      51546.149      4136.839     
    279000   318.78842     -925.66391      8.8594271     -916.80448      51823.237      4136.839     
    280000   319.52615     -925.68516      8.8799294     -916.80523      51819.757      4136.839     
    281000   304.12263     -925.25654      8.451851      -916.80469      51605.574      4136.839     
    282000   316.79062     -925.60823      8.8039064     -916.80433      51678.882      4136.839     
    283000   300.51799     -925.1553       8.3516748     -916.80362      51787.906      4136.839     
    284000   299.8961      -925.13869      8.3343919     -916.8043       51654.342      4136.839     
    285000   296.10051     -925.03392      8.228909      -916.80501      51517.218      4136.839     
    286000   298.02259     -925.08652      8.2823254     -916.80419      51771.963      4136.839     
    287000   319.75932     -925.69103      8.8864093     -916.80462      51947.213      4136.839     
    288000   307.44794     -925.34907      8.5442644     -916.80481      51824.336      4136.839     
    289000   305.17456     -925.28685      8.4810852     -916.80576      51415.671      4136.839     
    290000   304.22126     -925.25963      8.4545922     -916.80504      51622.517      4136.839     
    291000   319.32384     -925.67977      8.8743067     -916.80547      51634.149      4136.839     
    292000   307.73721     -925.35717      8.5523037     -916.80486      51617.126      4136.839     
    293000   295.87046     -925.0271       8.2225157     -916.80458      51638.644      4136.839     
    294000   312.10498     -925.47831      8.6736881     -916.80462      51682.42       4136.839     
    295000   301.97693     -925.19585      8.3922201     -916.80363      51724.501      4136.839     
    296000   302.57557     -925.21314      8.4088568     -916.80428      51581.577      4136.839     
    297000   293.60208     -924.96366      8.1594751     -916.80419      51408.099      4136.839     
    298000   306.35519     -925.31863      8.5138961     -916.80474      51636.24       4136.839     
    299000   300.71606     -925.1606       8.3571793     -916.80342      51858.181      4136.839     
    300000   322.37116     -925.76429      8.9589947     -916.8053       51815.502      4136.839     
    301000   299.03992     -925.11513      8.3105979     -916.80453      51454.845      4136.839     
    302000   307.15569     -925.34148      8.5361426     -916.80534      51471.48       4136.839     
    303000   319.87866     -925.69539      8.8897258     -916.80566      51560.146      4136.839     
    304000   298.55515     -925.10136      8.2971257     -916.80424      51641.423      4136.839     
    305000   310.30837     -925.42855      8.6237584     -916.80479      51506.193      4136.839     
    306000   304.5618      -925.26848      8.4640561     -916.80442      51867.513      4136.839     
    307000   302.41865     -925.20907      8.404496      -916.80458      51486.491      4136.839     
    308000   284.29821     -924.70494      7.9009119     -916.80402      51498.408      4136.839     
    309000   295.18489     -925.00781      8.2034631     -916.80434      51784.41       4136.839     
    310000   307.85784     -925.36065      8.5556561     -916.80499      51798.608      4136.839     
    311000   306.70204     -925.32763      8.5235352     -916.8041       51947.081      4136.839     
    312000   309.31615     -925.40109      8.5961839     -916.8049       51692.5        4136.839     
    313000   306.82125     -925.33238      8.5268484     -916.80554      51485.476      4136.839     
    314000   317.51221     -925.62921      8.82396       -916.80525      51862.982      4136.839     
    315000   338.51449     -926.21349      9.407633      -916.80586      51957.773      4136.839     
    316000   307.23726     -925.3434       8.5384096     -916.80499      51700.971      4136.839     
    317000   307.93307     -925.36337      8.5577468     -916.80562      51744.518      4136.839     
    318000   303.8866      -925.24972      8.4452915     -916.80443      51753.25       4136.839     
    319000   307.37306     -925.34666      8.5421836     -916.80448      51793.538      4136.839     
    320000   307.09276     -925.33915      8.5343937     -916.80476      51771.886      4136.839     
    321000   314.6298      -925.5493       8.743855      -916.80544      51681.919      4136.839     
    322000   280.39993     -924.59612      7.7925752     -916.80354      51759.766      4136.839     
    323000   296.65336     -925.04821      8.2442731     -916.80394      51744.082      4136.839     
    324000   319.42906     -925.68207      8.8772312     -916.80484      52111.863      4136.839     
    325000   322.25567     -925.76191      8.9557851     -916.80612      51713.371      4136.839     
    326000   306.63904     -925.32704      8.5217844     -916.80526      51676.515      4136.839     
    327000   300.41262     -925.15328      8.3487465     -916.80454      51937.833      4136.839     
    328000   313.67013     -925.52182      8.7171851     -916.80464      51885.712      4136.839     
    329000   311.60364     -925.46455      8.6597554     -916.80479      52002.466      4136.839     
    330000   313.60614     -925.52131      8.7154067     -916.80591      51690.911      4136.839     
    331000   292.62819     -924.93728      8.1324099     -916.80487      51385.842      4136.839     
    332000   313.78009     -925.52589      8.7202409     -916.80565      51859.015      4136.839     
    333000   322.66063     -925.77251      8.9670394     -916.80547      52027.31       4136.839     
    334000   329.02726     -925.95096      9.1439741     -916.80698      51775.14       4136.839     
    335000   307.34147     -925.34703      8.5413057     -916.80572      51843.569      4136.839     
    336000   310.92909     -925.44618      8.6410091     -916.80517      51877.482      4136.839     
    337000   312.42806     -925.48758      8.6826668     -916.80491      51863.822      4136.839     
    338000   311.10615     -925.45111      8.6459295     -916.80518      51684.977      4136.839     
    339000   301.16993     -925.17417      8.3697929     -916.80437      51832.97       4136.839     
    340000   315.38418     -925.5699       8.7648202     -916.80508      51782.74       4136.839     
    341000   321.97833     -925.75305      8.9480776     -916.80498      51832.056      4136.839     
    342000   324.38042     -925.82068      9.0148339     -916.80585      51790.452      4136.839     
    343000   321.02269     -925.72757      8.9215196     -916.80605      51567.65       4136.839     
    344000   283.32572     -924.67753      7.8738855     -916.80364      51748.307      4136.839     
    345000   332.8224      -926.05514      9.2494445     -916.8057       51863.917      4136.839     
    346000   291.97199     -924.91911      8.1141735     -916.80494      51658.191      4136.839     
    347000   304.9289      -925.27964      8.474258      -916.80538      51597.903      4136.839     
    348000   294.4396      -924.98727      8.1827506     -916.80451      51759.762      4136.839     
    349000   290.65246     -924.8819       8.0775025     -916.8044       51907.735      4136.839     
    350000   300.76561     -925.16349      8.3585563     -916.80494      51787.76       4136.839     
    351000   306.16542     -925.31381      8.5086221     -916.80518      51811.826      4136.839     
    352000   306.38128     -925.31982      8.5146211     -916.8052       51922.516      4136.839     
    353000   313.57384     -925.51933      8.7145089     -916.80482      51996.005      4136.839     
    354000   329.33919     -925.95832      9.1526427     -916.80568      51904.209      4136.839     
    355000   318.31714     -925.65148      8.8463298     -916.80515      52030.859      4136.839     
    356000   317.27188     -925.62265      8.8172811     -916.80537      51981.911      4136.839     
    357000   326.6553      -925.88368      9.078055      -916.80562      51963.611      4136.839     
    358000   304.02084     -925.25364      8.4490222     -916.80461      52007.589      4136.839     
    359000   321.36186     -925.73692      8.9309453     -916.80598      51812.181      4136.839     
    360000   316.66913     -925.60641      8.80053       -916.80588      51928.167      4136.839     
    361000   317.76901     -925.6371       8.8310968     -916.80601      51967.243      4136.839     
    362000   311.41611     -925.46018      8.6545437     -916.80564      51966.218      4136.839     
    363000   297.17688     -925.06376      8.2588224     -916.80494      51827.966      4136.839     
    364000   296.67937     -925.04944      8.244996      -916.80444      51971.858      4136.839     
    365000   314.283       -925.5395       8.7342173     -916.80529      51880.019      4136.839     
    366000   314.1248      -925.53533      8.7298207     -916.80551      51857.918      4136.839     
    367000   284.41372     -924.70862      7.9041222     -916.80449      51667.379      4136.839     
    368000   320.90356     -925.72366      8.9182088     -916.80545      51835.831      4136.839     
    369000   319.24243     -925.67706      8.8720445     -916.80502      51976.475      4136.839     
    370000   315.62316     -925.57654      8.7714615     -916.80508      52005.529      4136.839     
    371000   333.56885     -926.07672      9.270189      -916.80653      51732.314      4136.839     
    372000   327.70759     -925.91285      9.1072991     -916.80555      52053.274      4136.839     
    373000   317.31931     -925.62363      8.8185991     -916.80503      51896.04       4136.839     
    374000   322.29442     -925.76265      8.956862      -916.80579      51767.85       4136.839     
    375000   285.64243     -924.74185      7.9382691     -916.80358      51875.041      4136.839     
    376000   326.24961     -925.87267      9.0667804     -916.80589      52022.681      4136.839     
    377000   303.98903     -925.25319      8.4481382     -916.80505      51949.005      4136.839     
    378000   309.37765     -925.40322      8.5978929     -916.80533      51892.563      4136.839     
    379000   294.47928     -924.98871      8.1838533     -916.80486      51780.775      4136.839     
    380000   313.51348     -925.51822      8.7128316     -916.80539      51872.951      4136.839     
    381000   310.2671      -925.42796      8.6226116     -916.80535      51915.971      4136.839     
    382000   307.96846     -925.36404      8.5587304     -916.80531      51854.473      4136.839     
    383000   314.44408     -925.54399      8.7386937     -916.8053       51788.841      4136.839     
    384000   295.86319     -925.02641      8.2223135     -916.8041       52025.491      4136.839     
    385000   295.55085     -925.01747      8.2136334     -916.80383      51769.093      4136.839     
    386000   280.34576     -924.59462      7.7910697     -916.80355      52062.177      4136.839     
    387000   318.58562     -925.65928      8.853791      -916.80549      51969.037      4136.839     
    388000   309.1359      -925.39599      8.5911745     -916.80482      51967.955      4136.839     
    389000   320.95543     -925.72524      8.9196502     -916.80559      52033.201      4136.839     
    390000   326.68457     -925.88504      9.0788685     -916.80617      51875.033      4136.839     
    391000   297.61681     -925.07482      8.2710484     -916.80377      52095.293      4136.839     
    392000   301.19017     -925.17502      8.3703551     -916.80466      51882.241      4136.839     
    393000   301.07911     -925.17229      8.3672687     -916.80502      51868.068      4136.839     
    394000   312.49442     -925.49018      8.6845109     -916.80567      51876.52       4136.839     
    395000   312.75635     -925.49645      8.6917903     -916.80466      52007.405      4136.839     
    396000   321.97315     -925.75347      8.9479336     -916.80554      52016.809      4136.839     
    397000   302.00661     -925.19761      8.393045      -916.80456      51962.257      4136.839     
    398000   299.54654     -925.12993      8.3246773     -916.80525      51704.358      4136.839     
    399000   309.32593     -925.40153      8.5964557     -916.80508      52000.12       4136.839     
    400000   293.54442     -924.96214      8.1578728     -916.80426      51935.426      4136.839     
    401000   331.19982     -926.01086      9.2043515     -916.80651      51829.534      4136.839     
    402000   302.00901     -925.19758      8.3931115     -916.80446      51930.607      4136.839     
    403000   315.22545     -925.56546      8.7604089     -916.80506      51983.795      4136.839     
    404000   307.24881     -925.34364      8.5387306     -916.80491      51798.615      4136.839     
    405000   300.12472     -925.14557      8.3407454     -916.80482      51729.615      4136.839     
    406000   289.15312     -924.84041      8.0358344     -916.80457      51603.288      4136.839     
    407000   320.89085     -925.7242       8.9178556     -916.80634      51813.513      4136.839     
    408000   328.62023     -925.93834      9.1326622     -916.80568      52018.48       4136.839     
    409000   318.18624     -925.64804      8.8426918     -916.80534      52147.322      4136.839     
    410000   316.16898     -925.59299      8.7866303     -916.80636      51624.606      4136.839     
    411000   303.41339     -925.23805      8.4321406     -916.80591      51657.863      4136.839     
    412000   306.34918     -925.31912      8.513729      -916.80539      51819.478      4136.839     
    413000   314.2725      -925.53931      8.7339255     -916.80539      51906.926      4136.839     
    414000   286.75866     -924.77289      7.9692903     -916.8036       51888.251      4136.839     
    415000   295.50658     -925.01712      8.2124031     -916.80472      51896.985      4136.839     
    416000   302.47452     -925.21128      8.4060485     -916.80523      51797.264      4136.839     
    417000   314.33204     -925.54118      8.7355801     -916.8056       51880.641      4136.839     
    418000   313.06743     -925.50604      8.7004354     -916.80561      51851.878      4136.839     
    419000   292.52879     -924.93421      8.1296475     -916.80456      51722.999      4136.839     
    420000   310.92959     -925.44639      8.6410227     -916.80537      51887.207      4136.839     
    421000   308.79133     -925.38595      8.5815986     -916.80435      52202.628      4136.839     
    422000   335.4599      -926.12927      9.322743      -916.80652      51926.061      4136.839     
    423000   306.98746     -925.33739      8.5314675     -916.80592      51859.124      4136.839     
    424000   272.16346     -924.3674       7.5636761     -916.80373      51556.382      4136.839     
    425000   304.91354     -925.27903      8.4738313     -916.8052       51878.523      4136.839     
    426000   315.75712     -925.58051      8.7751845     -916.80533      52139.957      4136.839     
    427000   329.25913     -925.95684      9.1504178     -916.80642      51863.632      4136.839     
    428000   303.69033     -925.24553      8.4398371     -916.8057       51699.683      4136.839     
    429000   296.20096     -925.0367       8.2317005     -916.805        51587.795      4136.839     
    430000   295.2051      -925.00881      8.2040247     -916.80478      51733.148      4136.839     
Loop time of 80.6708 on 8 procs for 380000 steps with 216 atoms

Performance: 406.988 ns/day, 0.059 hours/ns, 4710.504 timesteps/s, 1.017 Matom-step/s
94.7% CPU use with 8 MPI tasks x no OpenMP threads

MPI task timing breakdown:
Section |  min time  |  avg time  |  max time  |%varavg| %total
---------------------------------------------------------------
Pair    | 24.623     | 27.438     | 31.816     |  38.6 | 34.01
Neigh   | 0          | 0          | 0          |   0.0 |  0.00
Comm    | 39.684     | 43.909     | 46.619     |  29.5 | 54.43
Output  | 1.3107     | 1.591      | 1.8286     |  13.9 |  1.97
Modify  | 0.15469    | 0.16733    | 0.18787    |   2.4 |  0.21
Other   |            | 7.566      |            |       |  9.38

Nlocal:             27 ave          32 max          24 min
Histogram: 1 1 1 3 0 1 0 0 0 1
Nghost:          400.5 ave         403 max         396 min
Histogram: 1 0 0 0 1 2 0 1 1 2
Neighs:              0 ave           0 max           0 min
Histogram: 8 0 0 0 0 0 0 0 0 0
FullNghs:       989.75 ave        1188 max         865 min
Histogram: 1 1 1 2 1 1 0 0 0 1

Total # of neighbors = 7918
Ave neighs/atom = 36.657407
Neighbor list builds = 0
Dangerous builds = 0
unfix           prod
undump          dump_solid

# ===================================================================
# FASE 2: Riscaldamento NVT da 300 K a 3000 K
# (non raccogliamo dati qui, è solo transizione)
# ===================================================================
fix             heat all nvt temp 300.0 3000.0 0.1
run             100000
Per MPI rank memory allocation (min/avg/max) = 3.312 | 3.312 | 3.312 Mbytes
   Step          Temp          PotEng         KinEng         TotEng         Press          Volume    
    430000   295.2051      -925.00881      8.2040247     -916.80478      51733.148      4136.839     
    431000   299.07749     -924.90238      8.3116419     -916.59074      51821.405      4136.839     
    432000   359.41492     -923.7608       9.9884753     -913.77232      52314.983      4136.839     
    433000   388.74267     -923.01587      10.803521     -912.21235      52993.717      4136.839     
    434000   404.78341     -922.42294      11.249308     -911.17363      52832.067      4136.839     
    435000   382.67191     -921.13408      10.634809     -910.49927      52829.81       4136.839     
    436000   437.941       -919.99934      12.170788     -907.82855      53482.189      4136.839     
    437000   474.29587     -920.12124      13.181124     -906.94012      53582.465      4136.839     
    438000   500.23404     -918.49878      13.90197      -904.59682      53861.339      4136.839     
    439000   469.84878     -919.20973      13.057535     -906.15219      53689.513      4136.839     
    440000   528.03153     -915.91451      14.674488     -901.24002      53591.172      4136.839     
    441000   563.16171     -917.30922      15.650788     -901.65843      54562.057      4136.839     
    442000   614.1367      -915.22348      17.067431     -898.15605      54651.025      4136.839     
    443000   653.42285     -917.57403      18.159229     -899.4148       55249.494      4136.839     
    444000   691.15749     -916.15487      19.20791      -896.94696      55119.629      4136.839     
    445000   678.59991     -912.25054      18.858923     -893.39162      55096.721      4136.839     
    446000   761.91839     -911.66893      21.174422     -890.4945       55864.99       4136.839     
    447000   770.79379     -910.1566       21.421077     -888.73552      54776.153      4136.839     
    448000   806.29793     -912.45659      22.40777      -890.04882      56476.721      4136.839     
    449000   756.6962      -909.35621      21.029292     -888.32691      55335.355      4136.839     
    450000   908.14757     -908.43643      25.238266     -883.19816      55637.377      4136.839     
    451000   823.04343     -908.94769      22.873143     -886.07454      56113.138      4136.839     
    452000   931.49525     -908.38899      25.88712      -882.50187      57490.345      4136.839     
    453000   894.97273     -909.31672      24.872125     -884.44459      56069.977      4136.839     
    454000   944.57927     -905.16037      26.250737     -878.90964      56686.105      4136.839     
    455000   853.86668     -906.15079      23.72975      -882.42104      56653.97       4136.839     
    456000   1018.4259     -904.82444      28.303003     -876.52144      57679.898      4136.839     
    457000   1141.9007     -902.61636      31.734484     -870.88188      58113.146      4136.839     
    458000   1057.3456     -903.12792      29.384618     -873.7433       58008.508      4136.839     
    459000   1126.5036     -903.33277      31.306583     -872.02619      56970.703      4136.839     
    460000   1140.1029     -899.91959      31.68452      -868.23507      58791.871      4136.839     
    461000   1081.3508     -901.30016      30.051746     -871.24841      57289.278      4136.839     
    462000   1217.363      -903.57977      33.831652     -869.74811      59282.362      4136.839     
    463000   1162.3806     -896.9549       32.30364      -864.65126      58328.523      4136.839     
    464000   1209.0441     -898.1815       33.60046      -864.58104      60750.816      4136.839     
    465000   1366.0704     -897.53295      37.964369     -859.56858      59353.501      4136.839     
    466000   1208.563      -899.22861      33.58709      -865.64152      57561.785      4136.839     
    467000   1295.003      -894.30357      35.989339     -858.31423      59194.649      4136.839     
    468000   1293.2061     -893.77642      35.939402     -857.83702      58764.511      4136.839     
    469000   1339.4359     -897.40142      37.22417      -860.17725      58314.572      4136.839     
    470000   1234.8666     -888.5114       34.318092     -854.19331      59802.784      4136.839     
    471000   1527.3021     -889.1425       42.445146     -846.69735      59640.012      4136.839     
    472000   1408.2143     -892.34006      39.135586     -853.20447      59720.789      4136.839     
    473000   1482.3937     -886.64039      41.197101     -845.44328      59138.734      4136.839     
    474000   1468.7639     -889.766        40.818317     -848.94769      59499.079      4136.839     
    475000   1560.3861     -884.92954      43.364583     -841.56496      57598.003      4136.839     
    476000   1545.1071     -887.69353      42.939966     -844.75356      61100.812      4136.839     
    477000   1620.0921     -881.94475      45.023867     -836.92089      60888.657      4136.839     
    478000   1540.0773     -886.85799      42.800182     -844.05781      60869.336      4136.839     
    479000   1594.2592     -881.55156      44.305946     -837.24562      61790.096      4136.839     
    480000   1541.077      -886.42611      42.827964     -843.59814      60904.345      4136.839     
    481000   1768.2799     -883.0186       49.142146     -833.87646      61332.24       4136.839     
    482000   1576.8955     -883.83977      43.823395     -840.01637      54673.256      4136.839     
    483000   1739.2818     -880.25303      48.33626      -831.91677      60810.565      4136.839     
    484000   1789.5683     -876.64042      49.733771     -826.90665      60610.38       4136.839     
    485000   1779.1785     -881.01938      49.445028     -831.57435      59305.29       4136.839     
    486000   1844.2199     -880.44889      51.25259      -829.1963       59641.182      4136.839     
    487000   1877.1452     -870.16155      52.167612     -817.99394      62852.82       4136.839     
    488000   1912.9638     -877.59308      53.163045     -824.43003      61564.411      4136.839     
    489000   1932.1159     -873.27424      53.695301     -819.57894      63071.639      4136.839     
    490000   1992.4014     -874.30696      55.370689     -818.93627      61911.889      4136.839     
    491000   1919.0457     -872.19771      53.332068     -818.86565      60822.789      4136.839     
    492000   2029.5244     -869.7022       56.402372     -813.29983      60501.766      4136.839     
    493000   1870.9609     -870.36149      51.995745     -818.36575      62848.834      4136.839     
    494000   1818.3746     -861.02859      50.534324     -810.49427      61717.554      4136.839     
    495000   2228.7145     -864.90408      61.938052     -802.96602      69267.66       4136.839     
    496000   1916.2182     -865.6747       53.253488     -812.42121      64834.426      4136.839     
    497000   2190.6852     -869.04018      60.881182     -808.15899      64030.506      4136.839     
    498000   2240.7127     -868.07671      62.271493     -805.80522      65013.26       4136.839     
    499000   1980.3021     -868.44172      55.034438     -813.40728      63265.685      4136.839     
    500000   2323.2182     -867.95748      64.564397     -803.39308      65931.937      4136.839     
    501000   2260.5965     -866.73663      62.824082     -803.91254      60419.194      4136.839     
    502000   2328.5306     -866.69749      64.712033     -801.98546      64453.245      4136.839     
    503000   2231.4833     -865.35796      62.014999     -803.34296      65991.459      4136.839     
    504000   2267.0997     -858.37117      63.004812     -795.36635      63996.021      4136.839     
    505000   1997.3483     -861.58008      55.508169     -806.07191      64305.538      4136.839     
    506000   2450.7707     -858.19261      68.1092       -790.08341      67839.345      4136.839     
    507000   2433.4196     -852.63248      67.626996     -785.00548      67949.803      4136.839     
    508000   2333.8952     -854.61193      64.86112      -789.75081      68807.03       4136.839     
    509000   2388.652      -852.59996      66.382863     -786.21709      63390.891      4136.839     
    510000   2332.8237     -849.32097      64.831343     -784.48963      65368.162      4136.839     
    511000   2534.5393     -845.32045      70.437207     -774.88325      70755.756      4136.839     
    512000   2511.0578     -836.66248      69.784636     -766.87784      71114.728      4136.839     
    513000   2530.324      -830.21988      70.320059     -759.89982      59098.427      4136.839     
    514000   2365.4735     -793.26038      65.738712     -727.52167      18919.536      4136.839     
    515000   2534.0523     -783.65655      70.423672     -713.23288      19654.589      4136.839     
    516000   2718.5927     -779.06443      75.552224     -703.51221      2700.7291      4136.839     
    517000   2686.8829     -781.43748      74.670978     -706.7665       25386.994      4136.839     
    518000   2479.6677     -784.15288      68.912275     -715.24061      7974.0105      4136.839     
    519000   2724.327      -783.37294      75.711584     -707.66136      3926.9822      4136.839     
    520000   2834.3509     -779.92666      78.769252     -701.15741      12986.662      4136.839     
    521000   2516.9972     -784.64028      69.949696     -714.69059      26706.534      4136.839     
    522000   2901.1321     -779.09765      80.625163     -698.47249      15271.216      4136.839     
    523000   2718.5356     -780.73482      75.550635     -705.18418     -5323.5107      4136.839     
    524000   2841.6209     -773.5619       78.971291     -694.59061      4368.0086      4136.839     
    525000   2616.3486     -779.01945      72.710763     -706.30869      6491.6507      4136.839     
    526000   2968.4322     -772.72057      82.495494     -690.22508      33313.445      4136.839     
    527000   2658.9545     -776.69061      73.894822     -702.79579      20796.406      4136.839     
    528000   2854.1406     -768.55282      79.319225     -689.2336       35358.095      4136.839     
    529000   3054.9644     -771.78916      84.900305     -686.88885      16256.315      4136.839     
    530000   3217.0795     -779.69999      89.405636     -690.29436      14784.912      4136.839     
Loop time of 25.5273 on 8 procs for 100000 steps with 216 atoms

Performance: 338.461 ns/day, 0.071 hours/ns, 3917.375 timesteps/s, 846.153 katom-step/s
93.7% CPU use with 8 MPI tasks x no OpenMP threads

MPI task timing breakdown:
Section |  min time  |  avg time  |  max time  |%varavg| %total
---------------------------------------------------------------
Pair    | 7.6581     | 8.0833     | 8.4054     |   8.6 | 31.67
Neigh   | 0.067394   | 0.06966    | 0.072307   |   0.6 |  0.27
Comm    | 13.161     | 13.464     | 13.849     |   6.4 | 52.74
Output  | 0.0019768  | 0.0026805  | 0.0052399  |   1.9 |  0.01
Modify  | 2.4478     | 2.5716     | 2.6605     |   5.3 | 10.07
Other   |            | 1.336      |            |       |  5.23

Nlocal:             27 ave          29 max          24 min
Histogram: 1 0 0 0 1 0 3 0 2 1
Nghost:        366.875 ave         374 max         361 min
Histogram: 1 1 2 0 0 1 1 1 0 1
Neighs:              0 ave           0 max           0 min
Histogram: 8 0 0 0 0 0 0 0 0 0
FullNghs:      1094.25 ave        1189 max         960 min
Histogram: 1 0 0 0 0 4 1 1 0 1

Total # of neighbors = 8754
Ave neighs/atom = 40.527778
Neighbor list builds = 998
Dangerous builds = 0
unfix           heat

# ===================================================================
# FASE 3: Equilibrazione NVT a 3000 K (fase liquida)
# ===================================================================
fix             eq2 all nvt temp 3000.0 3000.0 0.1
run             50000
Per MPI rank memory allocation (min/avg/max) = 3.312 | 3.312 | 3.312 Mbytes
   Step          Temp          PotEng         KinEng         TotEng         Press          Volume    
    530000   3217.0795     -779.69999      89.405636     -690.29436      14784.912      4136.839     
    531000   3043.7994     -770.17157      84.590019     -685.58156      29514.608      4136.839     
    532000   3117.5715     -772.31736      86.640216     -685.67714      27188.248      4136.839     
    533000   2750.8288     -772.36458      76.448094     -695.91649      20907.768      4136.839     
    534000   2995.9163     -771.95318      83.259303     -688.69388      38647.828      4136.839     
    535000   3145.6611     -770.79874      87.420851     -683.37789      14081.465      4136.839     
    536000   2895.5607     -775.18706      80.470328     -694.71673      26192.454      4136.839     
    537000   2971.8153     -771.03996      82.589514     -688.45045      26056.66       4136.839     
    538000   3095.2916     -763.82012      86.021035     -677.79909      40450.197      4136.839     
    539000   3089.5042     -774.06046      85.860198     -688.20026      16374.524      4136.839     
    540000   2817.8863     -771.36945      78.311686     -693.05777      26898.675      4136.839     
    541000   2716.1295     -767.58028      75.483768     -692.09651      27398.824      4136.839     
    542000   3288.1362     -770.73517      91.380368     -679.3548       12723.355      4136.839     
    543000   2915.4177     -768.95885      81.022173     -687.93668      27933.011      4136.839     
    544000   2928.5085     -769.94995      81.385979     -688.56398      30190.812      4136.839     
    545000   2854.613      -766.87619      79.332353     -687.54384      25342.638      4136.839     
    546000   3013.3259     -780.79958      83.743134     -697.05644     -4766.7307      4136.839     
    547000   2954.3384     -775.29268      82.103814     -693.18886      11208.688      4136.839     
    548000   3003.5662     -773.49975      83.471902     -690.02784      20751.548      4136.839     
    549000   2886.3539     -770.30098      80.214462     -690.08652      35060.882      4136.839     
    550000   3146.2989     -775.66704      87.438576     -688.22846      10712.524      4136.839     
    551000   2926.9656     -768.1231       81.343099     -686.78         22048.214      4136.839     
    552000   3099.1651     -772.77192      86.128685     -686.64324      25142.498      4136.839     
    553000   2997.7443     -777.05403      83.310104     -693.74392      8593.8704      4136.839     
    554000   2884.4866     -769.32373      80.162569     -689.16117      23749.31       4136.839     
    555000   2958.3644     -767.13342      82.215702     -684.91772      33184.489      4136.839     
    556000   3134.2679     -769.12721      87.104223     -682.02299      30313.151      4136.839     
    557000   2859.1466     -773.63118      79.458347     -694.17284      13273.461      4136.839     
    558000   3193.4483     -771.5667       88.748902     -682.8178       44404.748      4136.839     
    559000   2864.5686     -775.56175      79.609029     -695.95272      12520.135      4136.839     
    560000   2811.8459     -767.24959      78.143815     -689.10578      31231.838      4136.839     
    561000   3031.6363     -776.35802      84.251997     -692.10602      4588.6101      4136.839     
    562000   3232.4856     -764.41521      89.833785     -674.58142      22803.542      4136.839     
    563000   2948.9072     -768.45808      81.952876     -686.5052       27007.572      4136.839     
    564000   3035.0151     -768.81412      84.345897     -684.46823      27637.371      4136.839     
    565000   3051.6873     -778.78785      84.809232     -693.97862      16547.83       4136.839     
    566000   2976.7576     -770.48303      82.726865     -687.75617      28572.242      4136.839     
    567000   2992.9754     -775.23735      83.177572     -692.05978      25058.797      4136.839     
    568000   2974.2723     -766.42954      82.657796     -683.77174      15586.802      4136.839     
    569000   2954.08       -775.20555      82.096635     -693.10892      12704.081      4136.839     
    570000   3008.4907     -765.36428      83.608759     -681.75552      36991.535      4136.839     
    571000   3015.3722     -777.32801      83.8          -693.52801      24827.733      4136.839     
    572000   3135.3182     -774.3837       87.133411     -687.25029      38868.769      4136.839     
    573000   3428.1673     -770.24812      95.271962     -674.97616      25052.732      4136.839     
    574000   3197.2394     -767.88831      88.85426      -679.03405      30650.38       4136.839     
    575000   3114.644      -777.5221       86.558858     -690.96324      32852.225      4136.839     
    576000   2871.6755     -780.27181      79.806537     -700.46527      41519.311      4136.839     
    577000   2875.9394     -766.9326       79.925033     -687.00756      33566.367      4136.839     
    578000   3082.3185     -773.113        85.660502     -687.4525       25086.196      4136.839     
    579000   3161.1564     -772.05264      87.85148      -684.20116      6636.3668      4136.839     
    580000   2841.0664     -777.70556      78.955881     -698.74968      20327.887      4136.839     
Loop time of 16.0289 on 8 procs for 50000 steps with 216 atoms

Performance: 269.514 ns/day, 0.089 hours/ns, 3119.375 timesteps/s, 673.785 katom-step/s
89.6% CPU use with 8 MPI tasks x no OpenMP threads

MPI task timing breakdown:
Section |  min time  |  avg time  |  max time  |%varavg| %total
---------------------------------------------------------------
Pair    | 5.168      | 5.2192     | 5.2535     |   1.4 | 32.56
Neigh   | 0.1033     | 0.1058     | 0.11146    |   0.8 |  0.66
Comm    | 8.1075     | 8.2947     | 8.4459     |   4.4 | 51.75
Output  | 0.004983   | 0.012118   | 0.016134   |   3.5 |  0.08
Modify  | 1.4383     | 1.5601     | 1.7161     |   8.6 |  9.73
Other   |            | 0.8369     |            |       |  5.22

Nlocal:             27 ave          31 max          25 min
Histogram: 4 0 0 0 0 2 1 0 0 1
Nghost:        359.375 ave         370 max         349 min
Histogram: 2 0 0 1 1 1 0 1 1 1
Neighs:              0 ave           0 max           0 min
Histogram: 8 0 0 0 0 0 0 0 0 0
FullNghs:      1104.75 ave        1267 max         983 min
Histogram: 2 1 1 0 0 1 1 0 1 1

Total # of neighbors = 8838
Ave neighs/atom = 40.916667
Neighbor list builds = 1506
Dangerous builds = 0
unfix           eq2

# Raccolta dati liquido in NVE (~5000 frame)
dump            dump_liquid all custom 1 dataset_liquid.dump id type x y z fx fy fz c_pe_atom
dump_modify     dump_liquid sort id every 76
fix             prod2 all nve
run             380000          # 380000 / 76 = 5000 snapshot
Per MPI rank memory allocation (min/avg/max) = 3.328 | 3.328 | 3.328 Mbytes
   Step          Temp          PotEng         KinEng         TotEng         Press          Volume    
    580000   2841.0664     -777.70556      78.955881     -698.74968      20327.887      4136.839     
    581000   3025.0606     -782.83048      84.06925      -698.76123      19109.717      4136.839     
    582000   2750.4718     -775.18062      76.438172     -698.74245      26870.311      4136.839     
    583000   2960.362      -781.0218       82.271216     -698.75059      21064.723      4136.839     
    584000   2984.3606     -781.68815      82.938161     -698.74999      8394.3483      4136.839     
    585000   2805.7572     -776.72458      77.974606     -698.74998      3595.6316      4136.839     
    586000   2866.8058     -778.42264      79.671203     -698.75144      2388.8996      4136.839     
    587000   2837.0518     -777.59605      78.844312     -698.75174      8028.9709      4136.839     
    588000   2819.0869     -777.09333      78.345049     -698.74829      24220.163      4136.839     
    589000   2924.8086     -780.03383      81.283156     -698.75067     -9382.8756      4136.839     
    590000   2573.7467     -770.27341      71.526816     -698.7466       13150.839      4136.839     
    591000   2656.02       -772.55919      73.81327      -698.74592      35887.209      4136.839     
    592000   2925.4383     -780.0548       81.300654     -698.75415      18343.072      4136.839     
    593000   2870.9702     -778.53736      79.786936     -698.75043      34296.35       4136.839     
    594000   2807.0007     -776.75332      78.009164     -698.74415      14470.468      4136.839     
    595000   2989.0629     -781.82669      83.06884      -698.75785      15008.972      4136.839     
    596000   2557.0202     -769.79777      71.061974     -698.7358       6595.2681      4136.839     
    597000   2950.7714     -780.7499       82.004684     -698.74522      3321.2812      4136.839     
    598000   2790.0643     -776.2867       77.538485     -698.74822      3273.0058      4136.839     
    599000   2882.8148     -778.86875      80.116109     -698.75264      17214.113      4136.839     
    600000   2885.0144     -778.92946      80.177235     -698.75222      19750.647      4136.839     
    601000   2689.3992     -773.48594      74.740909     -698.74503      35295.972      4136.839     
    602000   2821.2322     -777.15607      78.40467      -698.7514       12702.18       4136.839     
    603000   2827.3845     -777.32467      78.575647     -698.74902      31931.093      4136.839     
    604000   2644.9459     -772.25138      73.50551      -698.74587      20300.272      4136.839     
    605000   2751.5358     -775.22033      76.467743     -698.75259      14373.732      4136.839     
    606000   2774.7954     -775.86842      77.114147     -698.75427      36312.124      4136.839     
    607000   2869.8337     -778.51024      79.755352     -698.75489      13320.426      4136.839     
    608000   2902.3354     -779.41087      80.658604     -698.75227      10614.187      4136.839     
    609000   2779.0126     -775.98156      77.231348     -698.75022      12671.202      4136.839     
    610000   2871.0292     -778.53985      79.788574     -698.75128      14450.909      4136.839     
    611000   2876.9768     -778.70296      79.953864     -698.74909      33050.01       4136.839     
    612000   2708.271      -774.01639      75.265374     -698.75101      38985.478      4136.839     
    613000   2832.5019     -777.46997      78.717865     -698.75211      30292.135      4136.839     
    614000   2852.3111     -778.02003      79.268383     -698.75165      22286.123      4136.839     
    615000   2824.0769     -777.2318       78.483726     -698.74808      26478.229      4136.839     
    616000   2877.165      -778.71716      79.959093     -698.75806      12427.865      4136.839     
    617000   2746.6744     -775.07967      76.332639     -698.74703      12841.209      4136.839     
    618000   2837.263      -777.5972       78.850182     -698.74702      25354.495      4136.839     
    619000   2857.0635     -778.15535      79.400456     -698.75489      34812.39       4136.839     
    620000   2564.4581     -770.00944      71.268679     -698.74076      12613.054      4136.839     
    621000   2698.0648     -773.73015      74.981733     -698.74841      35179.834      4136.839     
    622000   2874.0596     -778.62161      79.872792     -698.74881      20574.3        4136.839     
    623000   2664.8789     -772.80081      74.059467     -698.74134     -3954.0522      4136.839     
    624000   2722.4049     -774.40305      75.658167     -698.74489      22047.553      4136.839     
    625000   2973.0964     -781.37747      82.625116     -698.75235      45168.303      4136.839     
    626000   2825.9288     -777.28303      78.535193     -698.74784      31311.817      4136.839     
    627000   2782.5291     -776.08061      77.329075     -698.75154      14449.838      4136.839     
    628000   2852.9136     -778.03079      79.285126     -698.74566      29185.128      4136.839     
    629000   2787.992      -776.2322       77.480893     -698.75131      21531.459      4136.839     
    630000   2888.3767     -779.02403      80.270678     -698.75336      15209.329      4136.839     
    631000   2641.9298     -772.16746      73.421688     -698.74577      17397.519      4136.839     
    632000   2748.9857     -775.14154      76.396873     -698.74467     -2885.5173      4136.839     
    633000   2881.1917     -778.81488      80.070999     -698.74388      22470.606      4136.839     
    634000   2586.3776     -770.62129      71.877842     -698.74345      36439.791      4136.839     
    635000   2784.3095     -776.12587      77.378553     -698.74732      27059.62       4136.839     
    636000   2765.0786     -775.59144      76.84411      -698.74733      27228.632      4136.839     
    637000   2796.7276     -776.47398      77.723664     -698.75032      27721.112      4136.839     
    638000   2778.1371     -775.95748      77.207017     -698.75046      16832.373      4136.839     
    639000   2692.7714     -773.57859      74.834626     -698.74396      27674.441      4136.839     
    640000   2958.9885     -780.98433      82.233046     -698.75129     -2376.8237      4136.839     
    641000   2884.7471     -778.9168       80.169809     -698.74699      26241.945      4136.839     
    642000   2752.777      -775.2547       76.502237     -698.75247      35946.076      4136.839     
    643000   2782.0653     -776.06472      77.316186     -698.74853      20756.182      4136.839     
    644000   2833.4826     -777.49836      78.74512      -698.75324      14987.646      4136.839     
    645000   2904.3714     -779.45889      80.715186     -698.7437       11328.465      4136.839     
    646000   2923.5143     -780.00158      81.247186     -698.75439      17693.383      4136.839     
    647000   2809.3907     -776.82198      78.075584     -698.7464       88.586706      4136.839     
    648000   2824.2755     -777.23778      78.489247     -698.74854      13138.955      4136.839     
    649000   2635.6644     -771.99279      73.247567     -698.74522      53333.208      4136.839     
    650000   2904.8708     -779.48074      80.729063     -698.75167      24475.975      4136.839     
    651000   2681.8481     -773.27598      74.531056     -698.74492      20209.854      4136.839     
    652000   2655.232      -772.5377       73.791369     -698.74633      29081.434      4136.839     
    653000   2868.5116     -778.47463      79.718608     -698.75602      3130.1709      4136.839     
    654000   2954.4848     -780.86239      82.107883     -698.75451      18753.357      4136.839     
    655000   2634.8244     -771.96993      73.224223     -698.74571      26589.132      4136.839     
    656000   2815.7735     -777.00966      78.252966     -698.75669      34626.092      4136.839     
    657000   2734.6569     -774.74261      75.99866      -698.74395      17287.725      4136.839     
    658000   2685.5155     -773.37978      74.632977     -698.74681      10218.756      4136.839     
    659000   2907.6856     -779.56114      80.807289     -698.75385     -3621.472       4136.839     
    660000   2662.1359     -772.72992      73.983237     -698.74668      21288.646      4136.839     
    661000   2680.7006     -773.24373      74.499165     -698.74457      23255.583      4136.839     
    662000   2859.9144     -778.23259      79.479685     -698.75291      25925.335      4136.839     
    663000   2870.6795     -778.53486      79.778857     -698.756        22355.418      4136.839     
    664000   2825.7375     -777.27677      78.529876     -698.7469       20731.286      4136.839     
    665000   2736.1054     -774.78732      76.038917     -698.7484       21095.87       4136.839     
    666000   2728.7556     -774.57949      75.834658     -698.74483      5384.791       4136.839     
    667000   2629.054      -771.81089      73.063858     -698.74704      1957.8186      4136.839     
    668000   2829.9878     -777.39189      78.647997     -698.7439       19994.475      4136.839     
    669000   2880.5419     -778.80788      80.052941     -698.75494      31473.904      4136.839     
    670000   2672.1687     -773.00779      74.262057     -698.74574      9644.8785      4136.839     
    671000   2814.3833     -776.95881      78.214332     -698.74447      13454.79       4136.839     
    672000   2830.6951     -777.41571      78.667653     -698.74805      40214.421      4136.839     
    673000   2769.7419     -775.72198      76.973706     -698.74828      14360.086      4136.839     
    674000   3034.365      -783.08756      84.327828     -698.75973      10685.745      4136.839     
    675000   2710.1323     -774.06179      75.3171       -698.74469      11362.938      4136.839     
    676000   2692.2344     -773.56902      74.8197       -698.74932      34363.314      4136.839     
    677000   2836.2984     -777.57832      78.823374     -698.75495      12621.638      4136.839     
    678000   2734.8272     -774.7442       76.003394     -698.7408      -204.32535      4136.839     
    679000   2816.8187     -777.02979      78.282015     -698.74778      15056.548      4136.839     
    680000   2837.649      -777.61045      78.860908     -698.74954      15554.041      4136.839     
    681000   3045.1832     -783.38378      84.628475     -698.7553       10956.105      4136.839     
    682000   3049.413      -783.50247      84.746026     -698.75644      22157.812      4136.839     
    683000   2760.9942     -775.476        76.730601     -698.7454       36202.029      4136.839     
    684000   2917.151      -779.81976      81.070344     -698.74942     -14882.418      4136.839     
    685000   3078.9812     -784.32364      85.567754     -698.75588      16021.049      4136.839     
    686000   2763.7008     -775.55864      76.805819     -698.75282      444.09621      4136.839     
    687000   2820.3589     -777.13098      78.380399     -698.75058      15244.639      4136.839     
    688000   2829.9182     -777.39811      78.646063     -698.75205      28773.678      4136.839     
    689000   2832.4665     -777.46795      78.716881     -698.75107      9820.0136      4136.839     
    690000   2780.5891     -776.02391      77.275159     -698.74875      24565.378      4136.839     
    691000   2949.0118     -780.71148      81.955783     -698.7557       18554.955      4136.839     
    692000   2914.0247     -779.73655      80.983459     -698.75309      12894.918      4136.839     
    693000   2636.6266     -772.01506      73.274308     -698.74076      34320.355      4136.839     
    694000   2818.6899     -777.08046      78.334017     -698.74644      25552.414      4136.839     
    695000   2818.5211     -777.07755      78.329327     -698.74822     -3125.9948      4136.839     
    696000   2817.8705     -777.05759      78.311245     -698.74635      10260.083      4136.839     
    697000   3113.653      -785.28327      86.531317     -698.75196     -4295.0266      4136.839     
    698000   2707.8545     -773.99184      75.253798     -698.73804      24915.036      4136.839     
    699000   2909.8279     -779.61766      80.866827     -698.75083      8081.2356      4136.839     
    700000   2859.1385     -778.20632      79.45812      -698.7482       18039.676      4136.839     
    701000   2862.6374     -778.30784      79.555359     -698.75248      25913.227      4136.839     
    702000   2742.3188     -774.96258      76.211592     -698.75098      33042.484      4136.839     
    703000   2695.6948     -773.66644      74.915867     -698.75058      22280.331      4136.839     
    704000   2808.4857     -776.8014       78.050432     -698.75097      24720.582      4136.839     
    705000   2843.6929     -777.77742      79.028875     -698.74854      8077.4053      4136.839     
    706000   3019.2245     -782.66122      83.90706      -698.75416      745.24092      4136.839     
    707000   2941.4901     -780.50413      81.746749     -698.75738      24053.71       4136.839     
    708000   2919.6285     -779.89753      81.139194     -698.75833      7090.1557      4136.839     
    709000   2725.7784     -774.50187      75.75192      -698.74995      29104.91       4136.839     
    710000   2694.2121     -773.61681      74.874662     -698.74215      18641.886      4136.839     
    711000   2887.9442     -779.00441      80.258658     -698.74575     -2499.0875      4136.839     
    712000   2872.6763     -778.58189      79.834348     -698.74754      16571.458      4136.839     
    713000   2859.1631     -778.21322      79.458805     -698.75442      27994.122      4136.839     
    714000   2727.7247     -774.54762      75.80601      -698.74161      16689.769      4136.839     
    715000   3083.6208     -784.45082      85.696693     -698.75413      25250.949      4136.839     
    716000   2817.0377     -777.03894      78.2881       -698.75084      15192.571      4136.839     
    717000   2800.5463     -776.57701      77.829789     -698.74722     -2025.3277      4136.839     
    718000   2840.7646     -777.70258      78.947494     -698.75509      25238.139      4136.839     
    719000   2805.7468     -776.72468      77.974317     -698.75036      16018.138      4136.839     
    720000   2859.5929     -778.21634      79.470751     -698.74559      3642.2626      4136.839     
    721000   2619.0208     -771.52746      72.785027     -698.74244      22610.628      4136.839     
    722000   2950.9759     -780.76465      82.010369     -698.75428      14774.452      4136.839     
    723000   2855.0571     -778.09212      79.344695     -698.74743      15940.712      4136.839     
    724000   2832.4363     -777.46561      78.716043     -698.74957      2276.7695      4136.839     
    725000   2803.1403     -776.65559      77.901879     -698.75371      19465.356      4136.839     
    726000   2855.08       -778.09724      79.345331     -698.75191      8645.8216      4136.839     
    727000   2753.3058     -775.26201      76.516932     -698.74508      20756.624      4136.839     
    728000   2858.4424     -778.18097      79.438776     -698.7422       20076.938      4136.839     
    729000   2714.082      -774.17876      75.426865     -698.7519       33216.443      4136.839     
    730000   2868.2173     -778.46359      79.71043      -698.75316      11890.619      4136.839     
    731000   2941.4517     -780.49653      81.745681     -698.75085      30421.339      4136.839     
    732000   2855.7657     -778.1125       79.364389     -698.74811      28835.216      4136.839     
    733000   2642.7017     -772.18506      73.443142     -698.74191      18169.707      4136.839     
    734000   2742.2456     -774.9599       76.209558     -698.75034      18157.338      4136.839     
    735000   2687.6665     -773.43985      74.692756     -698.7471       17920.313      4136.839     
    736000   2578.3228     -770.39955      71.65399      -698.74556      29419.401      4136.839     
    737000   2715.227      -774.20156      75.458688     -698.74287     -184.83234      4136.839     
    738000   2833.7247     -777.49658      78.751848     -698.74474      9047.6651      4136.839     
    739000   2900.9039     -779.36799      80.618821     -698.74917      23549.009      4136.839     
    740000   2676.8143     -773.137        74.391162     -698.74584      42898.606      4136.839     
    741000   2942.781      -780.53409      81.782623     -698.75147     -13913.355      4136.839     
    742000   2891.4505     -779.1077       80.356102     -698.75159      23322.167      4136.839     
    743000   2590.0634     -770.72587      71.980273     -698.74559      15625.06       4136.839     
    744000   2798.3978     -776.51734      77.77008      -698.74726      26231.736      4136.839     
    745000   2515.587      -768.65073      69.910505     -698.74022      19406.035      4136.839     
    746000   2859.5509     -778.22631      79.469582     -698.75673      11963.345      4136.839     
    747000   3053.1245     -783.60375      84.849173     -698.75458      10679.035      4136.839     
    748000   2958.3615     -780.96983      82.215622     -698.7542       26991.349      4136.839     
    749000   2561.7846     -769.93909      71.194379     -698.74471      25763.386      4136.839     
    750000   2940.4473     -780.46694      81.717768     -698.74917      15473.684      4136.839     
    751000   2891.2673     -779.10792      80.351012     -698.75691      2385.0067      4136.839     
    752000   3039.2651     -783.22532      84.464008     -698.76131     -796.5699       4136.839     
    753000   2694.3237     -773.61918      74.877766     -698.74141      31647.795      4136.839     
    754000   2934.0933     -780.2904       81.541185     -698.74921      18894.541      4136.839     
    755000   2743.0799     -774.97722      76.232745     -698.74448      41137.198      4136.839     
    756000   2635.6547     -771.99292      73.247299     -698.74562      5141.8144      4136.839     
    757000   3038.1702     -783.18466      84.433579     -698.75108     -7199.4814      4136.839     
    758000   2910.1579     -779.63031      80.875999     -698.75431      18014.766      4136.839     
    759000   2927.1009     -780.09769      81.346859     -698.75083      28286.512      4136.839     
    760000   2931.5735     -780.21869      81.471157     -698.74753      7605.8243      4136.839     
    761000   2935.7319     -780.33071      81.586723     -698.74399      17230.589      4136.839     
    762000   2652.0352     -772.44282      73.702527     -698.74029      2864.3506      4136.839     
    763000   2853.0319     -778.03902      79.288412     -698.75061      41037.877      4136.839     
    764000   2780.2683     -776.01365      77.266246     -698.7474      -1959.1607      4136.839     
    765000   2689.4243     -773.48158      74.741607     -698.73997      467.24125      4136.839     
    766000   2933.7511     -780.28679      81.531674     -698.75512      30170.041      4136.839     
    767000   2851.8601     -778.01212      79.255848     -698.75627      18488.506      4136.839     
    768000   2716.0423     -774.22277      75.481345     -698.74142      9732.966       4136.839     
    769000   2923.5713     -780.00187      81.248769     -698.7531       24486.927      4136.839     
    770000   2945.0617     -780.5979       81.846008     -698.7519       2935.1635      4136.839     
    771000   2719.204      -774.32029      75.56921      -698.75108      14438.296      4136.839     
    772000   2805.0375     -776.69812      77.954605     -698.74352      3268.1454      4136.839     
    773000   2686.3571     -773.40236      74.656366     -698.74599      17130.778      4136.839     
    774000   2877.5749     -778.71985      79.970485     -698.74936      26805.06       4136.839     
    775000   2890.0399     -779.06399      80.316899     -698.74709      17235.418      4136.839     
    776000   2814.6744     -776.96564      78.222421     -698.74322      31007.73       4136.839     
    777000   2793.0241     -776.37099      77.620741     -698.75025      45299.775      4136.839     
    778000   2889.0084     -779.04129      80.288234     -698.75305      3419.2911      4136.839     
    779000   2502.8469     -768.28864      69.556445     -698.7322       21619.793      4136.839     
    780000   2602.1765     -771.06344      72.316909     -698.74653      15446.053      4136.839     
    781000   2726.5235     -774.52227      75.772627     -698.74964     -7866.0561      4136.839     
    782000   3091.1196     -784.65903      85.905092     -698.75394     -3654.1626      4136.839     
    783000   2840.0712     -777.67078      78.928224     -698.74256      22378.3        4136.839     
    784000   2688.8792     -773.46967      74.726456     -698.74321      36655.964      4136.839     
    785000   2923.7612     -780.01769      81.254048     -698.76365      41259.107      4136.839     
    786000   2805.6508     -776.72964      77.971649     -698.75799     -1624.036       4136.839     
    787000   2833.8584     -777.50424      78.755563     -698.74867      23961.606      4136.839     
    788000   3109.9018     -785.18276      86.427066     -698.75569     -14979.054      4136.839     
    789000   2687.4711     -773.43365      74.687326     -698.74632      23666.002      4136.839     
    790000   2730.4239     -774.62826      75.881022     -698.74724      5836.5946      4136.839     
    791000   2816.4914     -777.02079      78.272918     -698.74787      28972.614      4136.839     
    792000   2808.9282     -776.80829      78.062731     -698.74556      15060.672      4136.839     
    793000   2786.6503     -776.19412      77.443608     -698.75052      22632.769      4136.839     
    794000   2909.343      -779.60226      80.853351     -698.74891      7668.3623      4136.839     
    795000   2926.5051     -780.07978      81.330302     -698.74948      6845.5568      4136.839     
    796000   2739.3714     -774.87573      76.129682     -698.74604      34837.078      4136.839     
    797000   2936.5941     -780.36764      81.610685     -698.75695      17738.454      4136.839     
    798000   2838.1095     -777.62853      78.873707     -698.75482      30652.572      4136.839     
    799000   2588.6115     -770.68499      71.939925     -698.74506      11014.517      4136.839     
    800000   2850.8202     -777.97599      79.226947     -698.74905      14721.41       4136.839     
    801000   2808.2214     -776.79126      78.043088     -698.74817      17412.818      4136.839     
    802000   2773.1531     -775.81928      77.068506     -698.75078      34346.392      4136.839     
    803000   3123.4676     -785.56278      86.804074     -698.7587       17925.222      4136.839     
    804000   2675.4243     -773.09917      74.352533     -698.74664      34148.14       4136.839     
    805000   2876.8147     -778.6989       79.949358     -698.74954      26911.414      4136.839     
    806000   2998.785      -782.09043      83.339027     -698.75141      6123.318       4136.839     
    807000   2782.0321     -776.06724      77.315264     -698.75198      17768.044      4136.839     
    808000   2696.9662     -773.68954      74.951202     -698.73834      4485.1743      4136.839     
    809000   2841.9704     -777.73512      78.981003     -698.75412      40071.033      4136.839     
    810000   2830.3818     -777.4053       78.658944     -698.74636      3776.9354      4136.839     
    811000   2894.3233     -779.18643      80.43594      -698.75049      3430.7511      4136.839     
    812000   2925.3352     -780.04664      81.297788     -698.74885      25385.002      4136.839     
    813000   2657.7936     -772.61385      73.862559     -698.75129      24454.662      4136.839     
    814000   2881.1813     -778.82652      80.07071      -698.75581      25524.684      4136.839     
    815000   2964.9359     -781.14105      82.398329     -698.74272      24528.651      4136.839     
    816000   2793.9582     -776.39366      77.6467       -698.74696      11448.398      4136.839     
    817000   2762.8949     -775.53088      76.783421     -698.74746     -2670.4311      4136.839     
    818000   2839.6981     -777.66959      78.917856     -698.75174      25495.215      4136.839     
    819000   2815.7655     -777.00002      78.252745     -698.74727      33480.021      4136.839     
    820000   2745.8891     -775.05522      76.310816     -698.7444       14518.782      4136.839     
    821000   2738.3942     -774.84709      76.102526     -698.74457      7838.0444      4136.839     
    822000   2702.1968     -773.85043      75.096564     -698.75386      213.31544      4136.839     
    823000   2864.7147     -778.35973      79.61309      -698.74664      3506.5548      4136.839     
    824000   2724.2831     -774.45036      75.710365     -698.74         6916.4364      4136.839     
    825000   2768.2448     -775.67905      76.932101     -698.74695      8337.4616      4136.839     
    826000   2775.7093     -775.89691      77.139547     -698.75737      8001.4944      4136.839     
    827000   2834.7604     -777.52802      78.780632     -698.74739      5102.6447      4136.839     
    828000   2859.719      -778.22322      79.474254     -698.74896     -22244.316      4136.839     
    829000   2760.489      -775.45898      76.716558     -698.74242      20681.963      4136.839     
    830000   2830.0939     -777.39766      78.650945     -698.74671      15382.368      4136.839     
    831000   2796.6354     -776.4685       77.721102     -698.74739      4173.204       4136.839     
    832000   2847.9974     -777.89931      79.1485       -698.75081      44241.048      4136.839     
    833000   2836.5668     -777.57977      78.830834     -698.74893      20976.508      4136.839     
    834000   2987.6165     -781.77871      83.028644     -698.75006      13312.312      4136.839     
    835000   2746.1349     -775.06572      76.317645     -698.74808      14717.881      4136.839     
    836000   2634.6409     -771.95875      73.219123     -698.73963      3837.5517      4136.839     
    837000   2816.1059     -777.01429      78.262206     -698.75208      14765.162      4136.839     
    838000   2848.0109     -777.90266      79.148874     -698.75378      15084.695      4136.839     
    839000   2836.0905     -777.56525      78.817597     -698.74766      18375.374      4136.839     
    840000   2825.6911     -777.27656      78.528588     -698.74797      983.50436      4136.839     
    841000   2885.0317     -778.92823      80.177716     -698.75052      17132.817      4136.839     
    842000   2699.9203     -773.77508      75.033299     -698.74178      1150.6933      4136.839     
    843000   2828.902      -777.3708       78.61782      -698.75298      14493.101      4136.839     
    844000   2679.9429     -773.22517      74.478109     -698.74706      27412.32       4136.839     
    845000   2975.6997     -781.4491       82.697467     -698.75163      26494.217      4136.839     
    846000   2965.7864     -781.16957      82.421967     -698.7476       9716.6195      4136.839     
    847000   2735.0779     -774.75541      76.010362     -698.74505      24342.311      4136.839     
    848000   2775.3752     -775.87681      77.13026      -698.74655      25320.89       4136.839     
    849000   2894.1438     -779.17849      80.430952     -698.74754     -1997.1153      4136.839     
    850000   2844.523      -777.80443      79.051942     -698.75249      5365.2601      4136.839     
    851000   2899.1455     -779.31974      80.569952     -698.74978     -4650.3184      4136.839     
    852000   3029.5877     -782.94678      84.195063     -698.75172      4083.1615      4136.839     
    853000   2764.5954     -775.57924      76.830681     -698.74856      8333.3062      4136.839     
    854000   2883.3953     -778.88907      80.132241     -698.75683      12404.962      4136.839     
    855000   2865.8591     -778.39864      79.644894     -698.75375      9800.7334      4136.839     
    856000   2899.2117     -779.32277      80.571794     -698.75098      26300.419      4136.839     
    857000   2909.1112     -779.59799      80.84691      -698.75108      17555.989      4136.839     
    858000   2818.2712     -777.07103      78.322382     -698.74864      25913.649      4136.839     
    859000   2816.8227     -777.0258       78.282126     -698.74368      2199.9372      4136.839     
    860000   2854.3726     -778.07536      79.325671     -698.74969      6929.146       4136.839     
    861000   2859.8632     -778.23181      79.478262     -698.75355      5213.6394      4136.839     
    862000   2864.3662     -778.3569       79.603405     -698.7535       8919.8468      4136.839     
    863000   2777.338      -775.93574      77.184811     -698.75093     -1611.6025      4136.839     
    864000   2785.8959     -776.16986      77.422642     -698.74722      27975.585      4136.839     
    865000   2872.2279     -778.57559      79.821887     -698.75371      13991.787      4136.839     
    866000   2519.5907     -768.76027      70.021772     -698.7385       25393.942      4136.839     
    867000   2827.032      -777.31682      78.565853     -698.75097      26951.85       4136.839     
    868000   3068.6521     -784.03714      85.280699     -698.75644      2222.5763      4136.839     
    869000   2577.1926     -770.3674       71.622583     -698.74481      25380.872      4136.839     
    870000   2737.3945     -774.82601      76.074743     -698.75127      25368.844      4136.839     
    871000   2771.1891     -775.76446      77.013926     -698.75053      19733.632      4136.839     
    872000   2721.516      -774.37653      75.633463     -698.74307      20145.973      4136.839     
    873000   2790.3649     -776.29622      77.546838     -698.74938      31693.733      4136.839     
    874000   2927.3448     -780.10682      81.353637     -698.75318      20236.264      4136.839     
    875000   2878.6044     -778.7478       79.999098     -698.7487       4056.5257      4136.839     
    876000   2863.4545     -778.32435      79.578067     -698.74628      6928.2055      4136.839     
    877000   2788.6935     -776.2506       77.500388     -698.75021      20017.013      4136.839     
    878000   2851.5224     -778.00014      79.246464     -698.75368      6788.8517      4136.839     
    879000   2811.2284     -776.8732       78.126655     -698.74654      33439.646      4136.839     
    880000   3121.9817     -785.51996      86.762779     -698.75718      22059.142      4136.839     
    881000   2738.6688     -774.86453      76.110155     -698.75437      25208.904      4136.839     
    882000   2844.9501     -777.81569      79.063814     -698.75188      10551.822      4136.839     
    883000   2864.8644     -778.36948      79.61725      -698.75223     -9297.7186      4136.839     
    884000   2922.4964     -779.97348      81.218897     -698.75458      6721.5959      4136.839     
    885000   2842.3584     -777.74494      78.991787     -698.75315      20744.615      4136.839     
    886000   3004.7201     -782.26107      83.50397      -698.7571       17953.98       4136.839     
    887000   2789.9429     -776.27833      77.535112     -698.74321      20650.96       4136.839     
    888000   2859.8353     -778.23052      79.477485     -698.75303      12981.605      4136.839     
    889000   2859.3459     -778.2189       79.463884     -698.75501      40863.173      4136.839     
    890000   2873.5085     -778.60636      79.857476     -698.74889      14271.276      4136.839     
    891000   2799.1924     -776.53676      77.792165     -698.7446       21020.208      4136.839     
    892000   2805.9079     -776.7307       77.978794     -698.75191      6884.7261      4136.839     
    893000   2850.3326     -777.96892      79.213396     -698.75553      31034.12       4136.839     
    894000   2877.8863     -778.73376      79.979141     -698.75461      22248.767      4136.839     
    895000   2834.3904     -777.51802      78.770348     -698.74768      23408.479      4136.839     
    896000   2648.1647     -772.33196      73.594962     -698.737        43317.35       4136.839     
    897000   2775.1718     -775.86727      77.124609     -698.74266     -6874.6377      4136.839     
    898000   2734.965      -774.74913      76.007224     -698.7419      -12467.564      4136.839     
    899000   2805.6875     -776.72588      77.972669     -698.75321      35539.239      4136.839     
    900000   2786.9788     -776.20027      77.452736     -698.74753      36206.432      4136.839     
    901000   2808.7158     -776.8091       78.056826     -698.75227      9486.3777      4136.839     
    902000   2827.9038     -777.33789      78.590079     -698.74781      509.05242      4136.839     
    903000   2627.271      -771.75961      73.014308     -698.7453       33378.521      4136.839     
    904000   2890.7129     -779.08758      80.335602     -698.75198      15847.907      4136.839     
    905000   2754.246      -775.28599      76.543062     -698.74293      21341.932      4136.839     
    906000   2841.5496     -777.72074      78.969309     -698.75143      17762.48       4136.839     
    907000   2749.177      -775.14331      76.402189     -698.74112      25615.086      4136.839     
    908000   2787.4963     -776.21606      77.467118     -698.74894      16513.116      4136.839     
    909000   2974.9605     -781.43366      82.676922     -698.75674      29270.075      4136.839     
    910000   2837.977      -777.62236      78.870025     -698.75233      14970.645      4136.839     
    911000   2669.343      -772.93451      74.183527     -698.75098      26629.309      4136.839     
    912000   2937.5907     -780.39349      81.638382     -698.75511      13893.902      4136.839     
    913000   2844.0256     -777.78218      79.038121     -698.74405      12312.243      4136.839     
    914000   2845.127      -777.81538      79.068729     -698.74666      14608.963      4136.839     
    915000   2906.5539     -779.52903      80.775841     -698.75319      12704.044      4136.839     
    916000   2917.7966     -779.83583      81.088285     -698.74755      5000.6232      4136.839     
    917000   2579.9937     -770.44281      71.700427     -698.74238      44571.397      4136.839     
    918000   2781.2954     -776.04351      77.29479      -698.74872      12691.992      4136.839     
    919000   2833.4325     -777.49695      78.743726     -698.75322      8804.6769      4136.839     
    920000   2634.079      -771.94872      73.203507     -698.74521     -1960.1025      4136.839     
    921000   2999.6168     -782.1142       83.362145     -698.75206      12647.029      4136.839     
    922000   2728.6143     -774.57917      75.830733     -698.74844      1517.544       4136.839     
    923000   2814.7795     -776.9731       78.225342     -698.74775      14010.547      4136.839     
    924000   2716.327      -774.23728      75.489257     -698.74803      15514.899      4136.839     
    925000   2812.9248     -776.91696      78.1738       -698.74316      25629.023      4136.839     
    926000   2805.8601     -776.7236       77.977464     -698.74613      23664.871      4136.839     
    927000   2739.7367     -774.88779      76.139833     -698.74796      36549.681      4136.839     
    928000   2757.5369     -775.38661      76.634518     -698.7521       26410.962      4136.839     
    929000   2916.6994     -779.81152      81.057792     -698.75373      22115.464      4136.839     
    930000   2629.0788     -771.80747      73.064547     -698.74293      23171.456      4136.839     
    931000   2800.1687     -776.56849      77.819296     -698.7492      -749.77552      4136.839     
    932000   2893.5067     -779.16183      80.413245     -698.74859      1246.2331      4136.839     
    933000   2636.1646     -772.01057      73.261469     -698.7491       26560.144      4136.839     
    934000   2733.2721     -774.7101       75.960177     -698.74992      9790.2129      4136.839     
    935000   2899.6743     -779.33337      80.584649     -698.74872      18209.87       4136.839     
    936000   2947.3452     -780.66457      81.909467     -698.7551       5372.3914      4136.839     
    937000   2863.234      -778.31617      79.571938     -698.74423      2910.7133      4136.839     
    938000   2792.2687     -776.35058      77.599746     -698.75083      8767.1402      4136.839     
    939000   2785.8154     -776.16688      77.420405     -698.74648      29367.605      4136.839     
    940000   2786.9513     -776.20162      77.45197      -698.74965      16833.615      4136.839     
    941000   2780.6894     -776.02706      77.277949     -698.74911     -1983.0227      4136.839     
    942000   3001.614      -782.17476      83.417648     -698.75711      24532.217      4136.839     
    943000   2862.0282     -778.28181      79.538429     -698.74338      22614.816      4136.839     
    944000   2754.3939     -775.29684      76.547171     -698.74967     -15475.823      4136.839     
    945000   2815.5661     -776.99265      78.247205     -698.74545      31057.099      4136.839     
    946000   2789.9699     -776.28733      77.535862     -698.75147      10387.701      4136.839     
    947000   2813.1406     -776.92311      78.179797     -698.74331     -8121.4779      4136.839     
    948000   2885.5268     -778.9507       80.191478     -698.75922      27424.937      4136.839     
    949000   2704.8105     -773.91694      75.169203     -698.74774      44359.219      4136.839     
    950000   2857.8883     -778.1711       79.423376     -698.74772      16638.747      4136.839     
    951000   2784.5678     -776.1361       77.385731     -698.75037      27186.3        4136.839     
    952000   2799.3937     -776.5497       77.797759     -698.75195      31875.126      4136.839     
    953000   2885.0413     -778.92908      80.177983     -698.75109      25636.677      4136.839     
    954000   2853.0417     -778.04439      79.288686     -698.75571      17947.817      4136.839     
    955000   2718.3208     -774.29266      75.544667     -698.74799      15671.964      4136.839     
    956000   2648.4105     -772.34432      73.601795     -698.74253      38120.461      4136.839     
    957000   2640.9732     -772.14009      73.395105     -698.74499      9758.9866      4136.839     
    958000   2628.3162     -771.78656      73.043354     -698.74321      23092.171      4136.839     
    959000   2659.3359     -772.64605      73.905421     -698.74063      8822.7559      4136.839     
    960000   2753.4012     -775.26879      76.519584     -698.7492       18520.014      4136.839     
Loop time of 745.705 on 8 procs for 380000 steps with 216 atoms

Performance: 44.028 ns/day, 0.545 hours/ns, 509.585 timesteps/s, 110.070 katom-step/s
16.1% CPU use with 8 MPI tasks x no OpenMP threads

MPI task timing breakdown:
Section |  min time  |  avg time  |  max time  |%varavg| %total
---------------------------------------------------------------
Pair    | 39.72      | 39.9       | 40.187     |   2.4 |  5.35
Neigh   | 0.76328    | 0.77529    | 0.79312    |   1.3 |  0.10
Comm    | 76.132     | 533.13     | 685.69     |1142.6 | 71.49
Output  | 2.2138     | 2.6207     | 2.9251     |  15.8 |  0.35
Modify  | 0.17673    | 0.18302    | 0.1875     |   0.9 |  0.02
Other   |            | 169.1      |            |       | 22.68

Nlocal:             27 ave          29 max          24 min
Histogram: 1 0 0 0 2 0 2 0 1 2
Nghost:        365.625 ave         371 max         357 min
Histogram: 1 0 0 0 1 2 0 2 0 2
Neighs:              0 ave           0 max           0 min
Histogram: 8 0 0 0 0 0 0 0 0 0
FullNghs:       1103.5 ave        1192 max         994 min
Histogram: 1 0 0 1 1 1 2 0 0 2

Total # of neighbors = 8828
Ave neighs/atom = 40.87037
Neighbor list builds = 10929
Dangerous builds = 0
unfix           prod2
undump          dump_liquid

print           "Simulazione completata. Due dump file generati."
Simulazione completata. Due dump file generati.
Total wall time: 0:14:38
