64
Step 0
Si 0.000872 10.858817 0.002639
Si 2.718522 2.709238 10.857701
Si 1.358024 1.357013 1.357796
Si 4.070209 4.076555 1.360481
Si 0.000066 2.719643 2.717183
Si 2.712438 0.001579 2.712361
Si 1.360562 4.073414 4.072728
Si 4.070791 1.362215 4.072830
Si 10.860395 10.861142 5.432902
Si 2.716578 2.717227 5.432559
Si 1.364831 1.356709 6.787121
Si 4.070342 4.075664 6.792669
Si 10.861457 2.712992 8.143816
Si 2.717541 0.002845 8.148438
Si 1.355343 4.074367 9.504747
Si 4.073832 1.361028 9.505108
Si 0.002137 5.431561 0.001080
Si 2.717476 8.141907 10.861022
Si 1.356002 6.786923 1.356922
Si 4.078145 9.501656 1.361125
Si 10.856154 8.145700 2.716153
Si 2.717324 5.433736 2.718284
Si 1.356414 9.503020 4.076253
Si 4.072446 6.784770 4.069522
Si 10.858734 5.433013 5.431584
Si 2.717676 8.145388 5.431638
Si 1.359707 6.788037 6.790396
Si 4.070855 9.503355 6.787562
Si 10.857800 8.148478 8.145016
Si 2.715385 5.432957 8.148112
Si 1.359841 9.504249 9.502922
Si 4.072823 6.783379 9.499461
Si 5.426371 10.858962 0.001454
Si 8.143282 2.714554 0.004494
Si 6.787388 1.360575 1.354697
Si 9.503398 4.070371 1.356706
Si 5.433683 2.709994 2.717071
Si 8.147146 10.860324 2.710715
Si 6.788836 4.071793 4.074139
Si 9.504166 1.363497 4.072543
Si 5.427383 0.000938 5.431846
Si 8.150937 2.718655 5.432309
Si 6.793538 1.354064 6.786690
Si 9.500960 4.072265 6.784199
Si 5.432989 2.715081 8.141631
Si 8.142910 0.001392 8.149435
Si 6.795342 4.083432 9.505753
Si 9.500748 1.350876 9.505257
Si 5.428094 5.429928 10.860033
Si 8.145866 8.150436 0.000633
Si 6.788056 6.785582 1.352192
Si 9.502449 9.504401 1.363828
Si 5.431283 8.150154 2.713915
Si 8.142337 5.428070 2.713151
Si 6.795787 9.501806 4.076187
Si 9.501040 6.792231 4.074654
Si 5.430313 5.431195 5.428889
Si 8.147850 8.145294 5.426960
Si 6.784273 6.789666 6.794190
Si 9.504633 9.504181 6.789819
Si 5.435257 8.147574 8.145213
Si 8.150082 5.432782 8.151794
Si 6.789212 9.500443 9.499728
Si 9.509673 6.794909 9.503746
64
Step 50
Si 0.032267 10.757052 0.034455
Si 2.721435 2.727351 10.849914
Si 1.316729 1.399182 1.347369
Si 4.024062 3.985655 1.397022
Si 0.061543 2.800585 2.710752
Si 2.653961 10.809418 2.737322
Si 1.354756 4.186347 4.161397
Si 3.980529 1.333796 4.049065
Si 10.836386 0.065046 5.411541
Si 2.770982 2.816635 5.487455
Si 1.379056 1.342478 6.786938
Si 4.128842 4.128593 6.857269
Si 10.798041 2.579318 8.141557
Si 2.803535 0.031402 8.196427
Si 1.276730 3.928392 9.487218
Si 4.262303 1.444874 9.416859
Si 10.850417 5.411400 0.013921
Si 2.781218 8.071371 10.845343
Si 1.338505 6.843800 1.399527
Si 4.018527 9.411623 1.408400
Si 10.858916 8.097915 2.805891
Si 2.674352 5.460826 2.695829
Si 1.316989 9.484998 4.108500
Si 4.190113 6.827249 4.036361
Si 10.830050 5.483977 5.410851
Si 2.737865 8.071378 5.378519
Si 1.325974 6.821291 6.776381
Si 4.043450 9.518263 6.761810
Si 0.092554 8.268476 8.090316
Si 2.590703 5.379969 8.196443
Si 1.469376 9.461194 9.522497
Si 4.105258 6.792704 9.453280
Si 5.378819 10.766665 10.825403
Si 8.121017 2.693277 10.792265
Si 6.699146 1.266955 1.289007
Si 9.484195 4.070013 1.332680
Si 5.386542 2.707510 2.694492
Si 8.092327 0.122568 2.746388
Si 6.752106 4.038834 4.079171
Si 9.539276 1.358721 4.015700
Si 5.396063 10.851836 5.342284
Si 8.178800 2.731029 5.401305
Si 6.791384 1.363505 6.689710
Si 9.562714 4.130770 6.871112
Si 5.646121 2.808690 8.096286
Si 8.107723 10.839349 8.167019
Si 6.870504 4.121362 9.456250
Si 9.527289 1.312906 9.583047
Si 5.349000 5.332246 10.843552
Si 8.149458 8.193657 0.037142
Si 6.721222 6.781597 1.274438
Si 9.489076 9.511671 1.419004
Si 5.592018 8.141011 2.737518
Si 8.049437 5.379450 2.642651
Si 6.825680 9.555824 4.114101
Si 9.346893 6.677840 4.019886
Si 5.430390 5.433664 5.472304
Si 8.098516 8.106618 5.524282
Si 6.828605 6.713117 6.814634
Si 9.423669 9.558064 6.770430
Si 5.361331 8.139678 8.075763
Si 8.299202 5.582052 8.198998
Si 6.722210 9.479949 9.535474
Si 9.599840 6.933015 9.607275
64
Step 100
Si 0.048261 10.847668 0.051488
Si 2.668187 2.657341 0.013777
Si 1.381352 1.338605 1.348071
Si 4.034471 4.012014 1.305797
Si 0.071675 2.780226 2.694429
Si 2.707789 10.795593 2.726453
Si 1.369979 4.120954 4.106236
Si 3.980777 1.370092 4.077140
Si 0.008700 0.017750 5.428742
Si 2.683005 2.699808 5.444051
Si 1.369845 1.390162 6.798400
Si 4.033372 4.093527 6.767567
Si 10.812326 2.679194 8.200835
Si 2.772313 0.078488 8.061611
Si 1.354985 4.070202 9.555046
Si 4.103160 1.312205 9.443341
Si 0.025141 5.465824 0.002840
Si 2.723872 8.098540 0.065421
Si 1.333123 6.773170 1.447837
Si 4.020348 9.560155 1.350940
Si 10.769068 8.106980 2.743140
Si 2.756047 5.420580 2.724438
Si 1.314429 9.458594 4.087648
Si 4.135310 6.790935 4.085272
Si 10.829110 5.440276 5.454562
Si 2.725281 8.146491 5.416320
Si 1.369338 6.809333 6.841752
Si 4.096787 9.486819 6.724384
Si 0.079000 8.252189 8.160405
Si 2.691211 5.394180 8.127945
Si 1.471288 9.610619 9.505725
Si 4.052250 6.743850 9.481699
Si 5.451942 0.010902 10.809214
Si 8.199000 2.655464 0.009012
Si 6.759107 1.346593 1.389641
Si 9.517369 4.027979 1.326942
Si 5.307765 2.680585 2.665458
Si 8.156563 0.073345 2.759095
Si 6.758926 3.988557 4.061075
Si 9.522192 1.442215 4.056214
Si 5.434076 0.051987 5.436737
Si 8.146094 2.753735 5.387910
Si 6.856813 1.404674 6.732531
Si 9.504726 4.091630 6.841277
Si 5.468895 2.765777 8.151706
Si 8.083620 10.803290 8.074854
Si 6.827255 4.011384 9.521068
Si 9.460887 1.230327 9.561295
Si 5.441526 5.407701 10.806337
Si 8.164928 8.189527 0.018898
Si 6.750335 6.786875 1.330670
Si 9.515401 9.498244 1.366999
Si 5.417892 8.107971 2.734237
Si 8.099368 5.389411 2.710014
Si 6.755610 9.543441 4.017997
Si 9.392044 6.730120 4.026115
Si 5.498727 5.428014 5.410396
Si 8.174792 8.183346 5.479006
Si 6.890419 6.838002 6.779148
Si 9.497108 9.537509 6.795482
Si 5.323841 8.113486 8.164052
Si 8.261830 5.478283 8.170005
Si 6.726227 9.497414 9.505631
Si 9.564923 6.831844 9.517672
64
Step 150
Si 10.825502 0.035253 10.828393
Si 2.679999 2.719236 10.860714
Si 1.425812 1.319553 1.382185
Si 4.107764 4.136271 1.282500
Si 10.835688 2.673065 2.737359
Si 2.771856 10.783211 2.701815
Si 1.340452 4.065657 4.023137
Si 4.130560 1.335843 4.113277
Si 0.005391 10.844134 5.437932
Si 2.639867 2.691628 5.401507
Si 1.275053 1.392090 6.821121
Si 4.102874 4.043122 6.714685
Si 0.005264 2.808621 8.219379
Si 2.700576 10.834564 8.092723
Si 1.373740 4.154591 9.498070
Si 4.007426 1.293785 9.487248
Si 0.006969 5.484285 0.013304
Si 2.646066 8.230513 0.041630
Si 1.418302 6.766199 1.336746
Si 4.091032 9.590994 1.307113
Si 10.814397 8.159588 2.657822
Si 2.787825 5.404394 2.735964
Si 1.322871 9.470973 4.064977
Si 4.041935 6.775246 4.090129
Si 0.012092 5.428831 5.508197
Si 2.693560 8.141737 5.463382
Si 1.357444 6.780118 6.796346
Si 4.151757 9.491378 6.803361
Si 10.835007 8.093757 8.213951
Si 2.825084 5.448362 8.096548
Si 1.333873 9.517940 9.498328
Si 4.030949 6.817744 9.544936
Si 5.488011 0.060266 0.006730
Si 8.179462 2.720209 0.042977
Si 6.869953 1.382468 1.413238
Si 9.522363 4.099565 1.365574
Si 5.412331 2.699499 2.679290
Si 8.183130 10.799061 2.741130
Si 6.760644 4.100953 4.038281
Si 9.506861 1.385658 4.097673
Si 5.507635 0.019945 5.446961
Si 8.118538 2.746709 5.432753
Si 6.790940 1.345756 6.845888
Si 9.468042 4.101221 6.806554
Si 5.302930 2.717975 8.185332
Si 8.155099 10.847589 8.113181
Si 6.701123 3.967266 9.559870
Si 9.475065 1.384283 9.449973
Si 5.527087 5.463372 10.839029
Si 8.128965 8.090306 10.824669
Si 6.834647 6.809228 1.402242
Si 9.490787 9.480829 1.305154
Si 5.363669 8.129583 2.740302
Si 8.200144 5.480934 2.755104
Si 6.729203 9.491308 3.977509
Si 9.539370 6.797744 4.127604
Si 5.474689 5.462179 5.456086
Si 8.120889 8.129083 5.422706
Si 6.845078 6.850439 6.737069
Si 9.553961 9.454217 6.790177
Si 5.448927 8.098541 8.206599
Si 8.074189 5.393320 8.106551
Si 6.787450 9.480867 9.478349
Si 9.425830 6.722945 9.414667
64
Step 200
Si 10.826775 0.051318 10.831972
Si 2.734315 2.768865 0.027833
Si 1.320744 1.374091 1.341648
Si 4.108643 4.045213 1.433533
Si 10.791393 2.606807 2.745353
Si 2.731108 0.049607 2.698644
Si 1.356013 3.996659 4.046998
Si 4.186039 1.373055 4.065414
Si 10.845685 10.824986 5.443066
Si 2.772177 2.692578 5.392906
Si 1.338010 1.341374 6.778641
Si 4.070023 4.017950 6.780450
Si 0.051616 2.780507 8.098193
Si 2.625431 10.822634 8.211812
Si 1.421316 4.106779 9.478365
Si 4.012205 1.381262 9.569332
Si 10.857174 5.390066 0.012302
Si 2.710113 8.217852 10.786888
Si 1.399607 6.817447 1.273569
Si 4.099804 9.527422 1.392956
Si 0.096254 8.208076 2.702204
Si 2.629332 5.435318 2.690855
Si 1.424587 9.546777 4.056265
Si 3.984147 6.818019 4.051667
Si 0.050471 5.425833 5.404631
Si 2.728525 8.198229 5.458981
Si 1.358120 6.754642 6.760259
Si 4.037106 9.519471 6.843432
Si 10.754141 8.012201 8.124782
Si 2.770163 5.483558 8.182974
Si 1.226351 9.420374 9.472303
Si 4.163028 6.879039 9.531137
Si 5.421495 0.018240 0.038087
Si 8.098342 2.832372 0.017180
Si 6.819406 1.353437 1.311335
Si 9.545027 4.128925 1.438005
Si 5.571518 2.739259 2.791281
Si 8.169588 10.798186 2.665698
Si 6.827478 4.146109 4.060430
Si 9.503810 1.282017 4.119535
Si 5.410932 10.802055 5.423257
Si 8.080441 2.671300 5.459694
Si 6.768641 1.275145 6.821262
Si 9.460703 4.026141 6.704783
Si 5.356234 2.661780 8.150502
Si 8.208333 0.090672 8.218589
Si 6.654319 4.064201 9.543616
Si 9.540988 1.493145 9.458681
Si 5.364300 5.409791 0.064395
Si 8.126000 8.128288 10.812464
Si 6.810264 6.756782 1.372868
Si 9.522213 9.507568 1.338185
Si 5.493810 8.147234 2.711306
Si 8.217451 5.467502 2.763023
Si 6.790866 9.486849 4.083502
Si 9.657341 6.851562 4.093152
Si 5.324298 5.406825 5.395245
Si 8.130073 8.058484 5.422428
Si 6.730604 6.767874 6.750727
Si 9.495177 9.481408 6.789407
Si 5.540618 8.236760 8.120124
Si 8.031282 5.357985 8.102170
Si 6.884713 9.551260 9.491585
Si 9.409321 6.696834 9.500121
64
Step 250
Si 0.010298 10.854837 10.836926
Si 2.740328 2.704076 10.856703
Si 1.279355 1.358066 1.360628
Si 4.021846 4.054560 1.462011
Si 10.850826 2.718496 2.765016
Si 2.734092 0.093336 2.655419
Si 1.372486 4.027216 4.121274
Si 4.087220 1.364920 4.050588
Si 10.849092 10.814197 5.479154
Si 2.785528 2.672720 5.453251
Si 1.425311 1.352973 6.759132
Si 4.027893 4.096651 6.839103
Si 0.020336 2.714823 8.070519
Si 2.651814 0.034191 8.177651
Si 1.397206 4.080135 9.497757
Si 4.064725 1.363576 9.592090
Si 10.861942 5.392338 10.818236
Si 2.764862 8.126196 10.814071
Si 1.323266 6.794463 1.323387
Si 4.079967 9.443307 1.396894
Si 0.113418 8.176617 2.711973
Si 2.658370 5.432767 2.713756
Si 1.447926 9.604031 4.073140
Si 4.054223 6.801218 4.024719
Si 0.025941 5.421794 5.342933
Si 2.724626 8.150023 5.416799
Si 1.374552 6.759073 6.803003
Si 3.989380 9.545950 6.840280
Si 10.818274 8.120887 8.092214
Si 2.713471 5.489367 8.211175
Si 1.320143 9.478440 9.463607
Si 4.116591 6.832285 9.503355
Si 5.368347 10.854597 0.036185
Si 8.117984 2.781288 10.829442
Si 6.784705 1.334112 1.294361
Si 9.507157 4.058349 1.371509
Si 5.501044 2.747717 2.715905
Si 8.096486 10.843268 2.655769
Si 6.829564 4.035839 4.115679
Si 9.461011 1.256243 4.067226
Si 5.388464 10.792368 5.432110
Si 8.173872 2.674467 5.465331
Si 6.754290 1.363251 6.736693
Si 9.513539 4.040113 6.764870
Si 5.442218 2.669893 8.137727
Si 8.170766 0.096119 8.210678
Si 6.789567 4.128223 9.472255
Si 9.536265 1.400395 9.536759
Si 5.355606 5.445974 0.042880
Si 8.189533 8.156930 0.042065
Si 6.754338 6.783607 1.361357
Si 9.513703 9.528492 1.391876
Si 5.456776 8.153280 2.699863
Si 8.135708 5.417726 2.691055
Si 6.820010 9.421044 4.115757
Si 9.571835 6.879672 4.032549
Si 5.356935 5.447853 5.368081
Si 8.194647 8.136837 5.438802
Si 6.746083 6.781233 6.766166
Si 9.429135 9.477164 6.819504
Si 5.467327 8.226896 8.123970
Si 8.108197 5.364130 8.127446
Si 6.864649 9.552421 9.534048
Si 9.478925 6.722969 9.521315
64
Step 300
Si 0.018500 10.831624 0.034932
Si 2.699206 2.664608 10.819936
Si 1.385251 1.351807 1.399809
Si 4.068574 4.105697 1.247176
Si 0.006921 2.782616 2.719101
Si 2.725886 10.854536 2.777976
Si 1.325946 4.129218 4.120891
Si 4.051102 1.303327 4.067515
Si 0.012643 0.014623 5.430214
Si 2.719143 2.733968 5.464793
Si 1.339070 1.379892 6.792588
Si 4.156001 4.168172 6.792893
Si 10.817212 2.685721 8.206351
Si 2.805986 0.014427 8.079442
Si 1.315218 4.054566 9.509725
Si 4.119001 1.370344 9.513329
Si 10.805862 5.474071 10.833896
Si 2.668236 8.095998 0.063354
Si 1.297586 6.761604 1.437340
Si 4.052903 9.470073 1.289579
Si 10.818534 8.097659 2.701694
Si 2.774757 5.399780 2.741635
Si 1.304270 9.476196 4.101320
Si 4.132580 6.732152 4.149777
Si 10.814859 5.473986 5.425602
Si 2.686807 8.122417 5.432096
Si 1.347376 6.842622 6.785777
Si 4.146317 9.446453 6.741948
Si 0.083484 8.223867 8.193523
Si 2.705834 5.402837 8.085774
Si 1.435404 9.551013 9.506823
Si 4.023111 6.761568 9.531104
Si 5.470447 0.001980 10.827815
Si 8.177464 2.655409 10.835979
Si 6.777904 1.398742 1.404099
Si 9.442695 4.039893 1.335413
Si 5.301980 2.727669 2.630072
Si 8.140144 0.036914 2.770317
Si 6.747614 4.030697 4.044931
Si 9.510570 1.375851 4.033203
Si 5.474992 0.041683 5.435083
Si 8.209521 2.737506 5.406921
Si 6.745213 1.460345 6.790985
Si 9.562280 4.108843 6.843072
Si 5.489871 2.772923 8.125608
Si 8.044032 10.791686 8.100454
Si 6.890807 4.057191 9.433178
Si 9.435517 1.267565 9.503683
Si 5.484179 5.479271 10.844025
Si 8.151669 8.122763 0.027456
Si 6.819831 6.782556 1.341171
Si 9.495785 9.500626 1.377359
Si 5.328930 8.106113 2.685024
Si 8.076335 5.390126 2.691208
Si 6.777441 9.475043 4.102383
Si 9.422416 6.751473 4.040167
Si 5.594656 5.454211 5.488385
Si 8.175446 8.236299 5.387146
Si 6.807246 6.824996 6.828691
Si 9.478247 9.497067 6.798624
Si 5.400038 8.068635 8.196993
Si 8.190417 5.501102 8.136068
Si 6.740790 9.402858 9.510521
Si 9.555945 6.846522 9.472049
64
Step 350
Si 0.014103 0.022387 0.049566
Si 2.693302 2.703739 10.825783
Si 1.417187 1.348679 1.365624
Si 4.080502 4.059742 1.268811
Si 0.079859 2.744752 2.666316
Si 2.702057 10.785958 2.808654
Si 1.385030 4.117566 4.079864
Si 3.965410 1.333154 4.042463
Si 0.012945 0.073655 5.398202
Si 2.650727 2.778230 5.440349
Si 1.358981 1.386603 6.846314
Si 4.085397 4.066980 6.775680
Si 10.830087 2.633252 8.229853
Si 2.806249 0.006993 8.097185
Si 1.268770 4.038383 9.492556
Si 4.111518 1.365824 9.426588
Si 0.003063 5.433925 0.031460
Si 2.657053 8.183444 0.079482
Si 1.348136 6.763981 1.438814
Si 4.076952 9.526867 1.361601
Si 10.748191 8.074771 2.719524
Si 2.749872 5.415062 2.730323
Si 1.274043 9.393545 4.067292
Si 4.112239 6.793623 4.066059
Si 10.851144 5.454906 5.495224
Si 2.757471 8.121369 5.412921
Si 1.356586 6.826535 6.775956
Si 4.136161 9.511547 6.707393
Si 0.099982 8.285528 8.173675
Si 2.688665 5.339871 8.114767
Si 1.475974 9.613711 9.561882
Si 3.986294 6.709217 9.520674
Si 5.427955 10.836316 10.853459
Si 8.141752 2.610389 0.008795
Si 6.771212 1.319852 1.377101
Si 9.523196 4.049198 1.335975
Si 5.335070 2.625068 2.694191
Si 8.177233 0.055519 2.802060
Si 6.746910 4.034787 4.040282
Si 9.560890 1.474008 4.077422
Si 5.468924 0.067518 5.361600
Si 8.144708 2.795534 5.386456
Si 6.840412 1.362757 6.828208
Si 9.536450 4.068251 6.810076
Si 5.537242 2.769884 8.124788
Si 8.097322 10.754208 8.110684
Si 6.871271 4.047584 9.511965
Si 9.490961 1.238051 9.507673
Si 5.417625 5.398894 10.848645
Si 8.111498 8.165857 10.840919
Si 6.743935 6.765577 1.324622
Si 9.471551 9.523693 1.372906
Si 5.373615 8.154293 2.730523
Si 8.116061 5.380660 2.705014
Si 6.785952 9.581516 4.034399
Si 9.358167 6.684212 4.097519
Si 5.501024 5.414649 5.476348
Si 8.111977 8.267464 5.318492
Si 6.848180 6.794041 6.864731
Si 9.539013 9.567917 6.729823
Si 5.355143 8.079974 8.116647
Si 8.254893 5.503978 8.178724
Si 6.675895 9.491151 9.517710
Si 9.602012 6.925400 9.525389
64
Step 400
Si 0.012626 10.803142 0.043892
Si 2.739595 2.729452 10.835590
Si 1.385877 1.349887 1.294278
Si 4.067327 4.025912 1.418007
Si 0.057388 2.725247 2.702893
Si 2.663538 0.003408 2.687915
Si 1.395171 4.064593 4.064806
Si 4.024575 1.361328 4.041927
Si 0.011774 10.819517 5.435452
Si 2.715676 2.743595 5.440737
Si 1.374879 1.307481 6.773649
Si 4.026766 4.026409 6.842516
Si 10.828041 2.694430 8.110536
Si 2.733853 0.042121 8.175553
Si 1.364633 4.051915 9.510477
Si 4.121674 1.403917 9.436644
Si 0.028575 5.432910 0.040779
Si 2.747514 8.174093 10.821663
Si 1.384747 6.834218 1.287391
Si 4.063071 9.493230 1.444941
Si 10.841058 8.144695 2.757793
Si 2.705998 5.465985 2.662097
Si 1.339772 9.476201 4.060384
Si 4.089146 6.838579 3.985423
Si 0.012782 5.458956 5.482915
Si 2.710188 8.145893 5.416052
Si 1.353582 6.752069 6.834353
Si 4.031499 9.528664 6.804222
Si 10.836008 8.160493 8.063100
Si 2.711726 5.446056 8.222224
Si 1.332781 9.479466 9.481285
Si 4.109274 6.813459 9.448388
Si 5.389425 10.840718 0.016484
Si 8.142421 2.774803 0.011261
Si 6.768555 1.311537 1.283767
Si 9.552218 4.089883 1.333845
Si 5.522346 2.669556 2.770986
Si 8.180849 0.046599 2.648845
Si 6.782418 4.086851 4.124443
Si 9.562467 1.419678 4.110856
Si 5.397878 0.010423 5.420792
Si 8.119357 2.771883 5.450757
Si 6.866679 1.274748 6.778646
Si 9.417866 4.101815 6.790053
Si 5.512079 2.716447 8.129326
Si 8.196009 0.015653 8.175478
Si 6.760623 4.107144 9.556824
Si 9.514994 1.352009 9.554209
Si 5.322111 5.380047 10.859089
Si 8.125219 8.181615 0.002350
Si 6.744519 6.771444 1.295180
Si 9.462229 9.463056 1.388672
Si 5.546060 8.137546 2.738720
Si 8.159134 5.449675 2.707845
Si 6.891427 9.523748 4.093350
Si 9.456699 6.761788 4.070822
Si 5.343449 5.445612 5.427607
Si 8.104911 8.066211 5.494072
Si 6.747035 6.664558 6.832068
Si 9.490688 9.474599 6.750728
Si 5.388351 8.131173 8.057319
Si 8.172899 5.505496 8.183151
Si 6.749399 9.545098 9.507039
Si 9.510572 6.833269 9.529531
64
Step 450
Si 10.829368 10.844671 10.806803
Si 2.760721 2.713826 0.018996
Si 1.308095 1.348886 1.361039
Si 4.064037 4.078348 1.429328
Si 10.827296 2.703406 2.756795
Si 2.753886 0.051864 2.646761
Si 1.365406 4.064972 4.069335
Si 4.199960 1.339743 4.130122
Si 10.802085 10.811652 5.436494
Si 2.756724 2.649185 5.414355
Si 1.298343 1.382990 6.735185
Si 4.078127 4.059104 6.784137
Si 0.019768 2.780248 8.088478
Si 2.631564 0.016511 8.186325
Si 1.380839 4.047123 9.502419
Si 4.076413 1.343950 9.561196
Si 0.025934 5.442836 10.826218
Si 2.771891 8.168260 10.815464
Si 1.418355 6.828014 1.271021
Si 4.110396 9.478039 1.331521
Si 0.050979 8.187124 2.734807
Si 2.667701 5.448844 2.709291
Si 1.423247 9.593586 4.076946
Si 4.044131 6.805060 4.065425
Si 0.005710 5.389331 5.376869
Si 2.696647 8.150566 5.440619
Si 1.366122 6.699500 6.752228
Si 4.037688 9.520974 6.796871
Si 10.779410 7.990268 8.148997
Si 2.712547 5.491423 8.178360
Si 1.263481 9.415748 9.424890
Si 4.146483 6.878409 9.517558
Si 5.495891 0.007384 10.860321
Si 8.184229 2.802069 10.856228
Si 6.845408 1.416293 1.382091
Si 9.524198 4.125371 1.404831
Si 5.498846 2.782944 2.732082
Si 8.122000 10.814176 2.695978
Si 6.801903 4.071619 4.091426
Si 9.486680 1.277132 4.049887
Si 5.443355 10.809902 5.470961
Si 8.187297 2.677773 5.452911
Si 6.769744 1.323943 6.727787
Si 9.504222 4.081380 6.806132
Si 5.321882 2.669045 8.150415
Si 8.152007 0.098414 8.186172
Si 6.659028 4.071545 9.545477
Si 9.514210 1.474342 9.503463
Si 5.468818 5.452308 0.039065
Si 8.107849 8.135776 10.839924
Si 6.838585 6.827995 1.418045
Si 9.523325 9.497217 1.361752
Si 5.473152 8.160334 2.726736
Si 8.169578 5.494907 2.749234
Si 6.795690 9.466603 4.108306
Si 9.595159 6.819677 4.051983
Si 5.332916 5.408166 5.377255
Si 8.163591 8.038738 5.479569
Si 6.682910 6.798530 6.731049
Si 9.441116 9.412610 6.846555
Si 5.476743 8.219897 8.151726
Si 8.026090 5.389801 8.111738
Si 6.883996 9.543152 9.482095
Si 9.420233 6.690498 9.521954
64
Step 500
Si 0.014418 0.086801 10.798243
Si 2.668875 2.686734 0.084381
Si 1.374958 1.325659 1.413741
Si 4.092061 4.102599 1.336363
Si 10.810308 2.636526 2.703714
Si 2.768425 10.843705 2.673893
Si 1.357864 4.002867 4.055822
Si 4.172186 1.370340 4.065240
Si 10.853184 10.820138 5.458849
Si 2.731742 2.616364 5.404089
Si 1.340703 1.342226 6.782945
Si 4.090132 4.063983 6.733704
Si 0.034333 2.786229 8.164703
Si 2.606994 10.799955 8.102267
Si 1.438757 4.147487 9.515598
Si 3.970427 1.302292 9.557876
Si 10.853445 5.432915 10.831712
Si 2.711264 8.171280 10.842323
Si 1.357089 6.775755 1.368213
Si 4.120526 9.590261 1.297827
Si 0.098338 8.249679 2.658216
Si 2.698390 5.418775 2.751861
Si 1.425014 9.589223 4.061331
Si 3.967568 6.753104 4.161522
Si 0.025260 5.349342 5.377898
Si 2.672451 8.183100 5.450420
Si 1.375992 6.794619 6.783366
Si 4.064735 9.502732 6.843391
Si 10.825719 8.057537 8.192379
Si 2.780010 5.441662 8.098564
Si 1.292916 9.526319 9.483459
Si 4.066797 6.789168 9.586742
Si 5.481787 0.102897 0.017457
Si 8.130267 2.758129 0.010158
Si 6.860839 1.409061 1.399511
Si 9.508791 4.067745 1.426516
Si 5.391790 2.800994 2.670143
Si 8.130938 10.763564 2.778447
Si 6.776860 4.051453 4.030017
Si 9.441359 1.257033 4.079102
Si 5.460889 0.005920 5.454107
Si 8.171976 2.626635 5.395924
Si 6.762011 1.447661 6.800612
Si 9.506758 4.056132 6.771332
Si 5.245758 2.710289 8.181492
Si 8.141528 10.850928 8.113526
Si 6.674715 4.068247 9.509377
Si 9.507632 1.411184 9.448036
Si 5.570022 5.470188 10.846476
Si 8.221076 8.109695 10.836201
Si 6.832285 6.792101 1.445682
Si 9.580296 9.539490 1.301923
Si 5.303261 8.182176 2.690360
Si 8.189487 5.418801 2.758873
Si 6.695144 9.477409 4.059789
Si 9.625362 6.897312 4.046404
Si 5.453050 5.392850 5.407808
Si 8.171551 8.144167 5.432230
Si 6.804641 6.900046 6.740078
Si 9.531006 9.485138 6.817651
Si 5.478107 8.199152 8.241913
Si 7.993377 5.305832 8.111116
Si 6.857068 9.538322 9.523915
Si 9.423487 6.646071 9.459166
64
Step 550
Si 10.826145 0.042743 0.000216
Si 2.673111 2.806036 10.830226
Si 1.389525 1.371728 1.314408
Si 4.067134 4.076342 1.360294
Si 10.847684 2.696835 2.740162
Si 2.742163 10.818715 2.715301
Si 1.316661 4.049654 4.080970
Si 4.084671 1.397829 4.047460
Si 0.069795 10.850005 5.477549
Si 2.690245 2.750124 5.405488
Si 1.371949 1.376317 6.865764
Si 4.053715 4.095358 6.757438
Si 0.000425 2.748487 8.166642
Si 2.751947 10.816225 8.127236
Si 1.352318 4.119941 9.485885
Si 4.032336 1.417029 9.471143
Si 10.838224 5.414267 0.051451
Si 2.706938 8.114073 0.020448
Si 1.311541 6.782209 1.400331
Si 4.100106 9.471822 1.423716
Si 10.847523 8.103167 2.675961
Si 2.720212 5.403368 2.714437
Si 1.358983 9.437254 4.078704
Si 4.066074 6.750753 4.071362
Si 10.845097 5.438298 5.436191
Si 2.758088 8.121353 5.490804
Si 1.334178 6.837571 6.847988
Si 4.146585 9.473001 6.828982
Si 0.012116 8.193858 8.136945
Si 2.765499 5.439226 8.133267
Si 1.397507 9.504603 9.572277
Si 4.040557 6.775758 9.482580
Si 5.362322 0.013583 10.820358
Si 8.130621 2.661984 10.855563
Si 6.752988 1.292870 1.284676
Si 9.457746 4.047596 1.347503
Si 5.430989 2.724510 2.687807
Si 8.129267 10.844443 2.699517
Si 6.819994 4.167186 4.028845
Si 9.439688 1.374127 4.122736
Si 5.403651 0.021149 5.467823
Si 8.079658 2.695722 5.438878
Si 6.802255 1.361031 6.824070
Si 9.504047 4.065566 6.682323
Si 5.454814 2.718438 8.102168
Si 8.135869 10.802604 8.127128
Si 6.826865 4.107835 9.490571
Si 9.446303 1.348257 9.453041
Si 5.423715 5.456018 10.827609
Si 8.182128 8.128429 0.051161
Si 6.799087 6.801377 1.349166
Si 9.488207 9.499275 1.320427
Si 5.465753 8.103171 2.710288
Si 8.170478 5.433569 2.689010
Si 6.741981 9.505690 4.038997
Si 9.522284 6.792233 4.130518
Si 5.474119 5.502175 5.437497
Si 8.062301 8.126941 5.438440
Si 6.901022 6.782661 6.803739
Si 9.489754 9.542323 6.775238
Si 5.490233 8.130969 8.181868
Si 8.255899 5.397612 8.145936
Si 6.748662 9.477187 9.547525
Si 9.534247 6.825520 9.491944
64
Step 600
Si 0.038836 10.815777 0.050910
Si 2.751957 2.725121 10.790974
Si 1.359718 1.397506 1.361183
Si 4.086022 4.027627 1.364804
Si 0.020411 2.702998 2.720010
Si 2.636043 0.019962 2.755023
Si 1.324102 4.101315 4.069429
Si 3.966712 1.354669 4.025273
Si 0.015458 0.024537 5.376298
Si 2.720456 2.770192 5.461608
Si 1.382755 1.345058 6.732811
Si 4.096038 4.083348 6.795397
Si 10.820553 2.603474 8.097010
Si 2.793702 0.084503 8.182768
Si 1.228835 4.033404 9.480226
Si 4.167761 1.441887 9.442493
Si 10.832278 5.416463 0.044908
Si 2.684279 8.113296 0.048344
Si 1.337322 6.815671 1.427597
Si 3.988726 9.467105 1.450021
Si 10.806441 8.074558 2.814173
Si 2.731275 5.395720 2.703270
Si 1.328826 9.465533 4.129672
Si 4.152585 6.795272 4.040141
Si 10.834384 5.514882 5.466310
Si 2.769003 8.131494 5.374970
Si 1.351745 6.857487 6.819448
Si 4.089325 9.493171 6.763527
Si 0.078790 8.295734 8.121233
Si 2.658607 5.437838 8.158836
Si 1.444770 9.517265 9.560396
Si 4.076188 6.770328 9.471776
Si 5.348584 10.785009 0.015632
Si 8.096510 2.650674 10.838761
Si 6.696504 1.285542 1.331207
Si 9.491191 4.004529 1.313236
Si 5.416219 2.646522 2.737286
Si 8.156275 0.129674 2.663638
Si 6.797373 4.120934 4.064113
Si 9.553206 1.411132 4.039767
Si 5.375328 0.019951 5.351967
Si 8.146300 2.736468 5.383223
Si 6.740796 1.331927 6.775041
Si 9.506643 4.072958 6.793418
Si 5.601693 2.751572 8.114920
Si 8.134893 10.851225 8.136250
Si 6.897814 4.073151 9.480124
Si 9.518132 1.289423 9.549677
Si 5.361090 5.346281 10.833487
Si 8.113527 8.187963 0.039930
Si 6.729700 6.753988 1.248006
Si 9.429106 9.521844 1.430026
Si 5.525986 8.129076 2.732946
Si 8.091596 5.388413 2.695001
Si 6.862499 9.577501 4.090338
Si 9.406163 6.713279 4.110367
Si 5.451398 5.429137 5.445236
Si 8.092355 8.153961 5.454133
Si 6.869490 6.716658 6.790685
Si 9.546500 9.562361 6.766975
Si 5.428682 8.061234 8.096246
Si 8.298322 5.524728 8.211381
Si 6.680135 9.471479 9.526069
Si 9.646086 6.930213 9.562070
64
Step 650
Si 0.022155 10.795439 0.032962
Si 2.702411 2.639016 10.826550
Si 1.349693 1.353423 1.330728
Si 4.060486 4.090346 1.255197
Si 0.060731 2.829986 2.663657
Si 2.687769 0.001993 2.714693
Si 1.400822 4.173538 4.118666
Si 4.011081 1.332576 4.104683
Si 10.774278 0.021586 5.409347
Si 2.726194 2.764563 5.467196
Si 1.355685 1.363939 6.745765
Si 4.050307 4.131242 6.846379
Si 10.819117 2.659072 8.171801
Si 2.773767 0.079708 8.087960
Si 1.323322 4.030282 9.517004
Si 4.106371 1.292072 9.495666
Si 0.070130 5.465011 10.825383
Si 2.717299 8.122982 0.044882
Si 1.354770 6.751909 1.424670
Si 4.064389 9.488637 1.287868
Si 10.825499 8.143073 2.769143
Si 2.756562 5.446018 2.748182
Si 1.324835 9.497795 4.045144
Si 4.147488 6.810063 4.035511
Si 10.845777 5.451158 5.463226
Si 2.739278 8.120560 5.385344
Si 1.399392 6.776537 6.737759
Si 4.035881 9.526862 6.744731
Si 0.077039 8.184548 8.192361
Si 2.604012 5.361554 8.173085
Si 1.477019 9.586742 9.478958
Si 4.041036 6.738102 9.510587
Si 5.480258 10.811424 0.019704
Si 8.176980 2.716321 10.852325
Si 6.784289 1.402867 1.433192
Si 9.534447 4.093778 1.307812
Si 5.367973 2.691859 2.674949
Si 8.153696 10.835198 2.756440
Si 6.797344 3.953985 4.067637
Si 9.566742 1.418147 4.011137
Si 5.465821 10.858723 5.397264
Si 8.218621 2.813566 5.438715
Si 6.780276 1.346063 6.748119
Si 9.512320 4.065974 6.917346
Si 5.495677 2.707935 8.135938
Si 8.072082 0.036547 8.145199
Si 6.842506 4.044233 9.473577
Si 9.529031 1.240238 9.515829
Si 5.428989 5.404813 0.030576
Si 8.125155 8.193209 10.800266
Si 6.766159 6.806109 1.339702
Si 9.503003 9.502739 1.375446
Si 5.383801 8.181360 2.726012
Si 8.033791 5.372791 2.742561
Si 6.796861 9.471078 4.114002
Si 9.429254 6.736648 4.028597
Si 5.441681 5.336176 5.433370
Si 8.205840 8.153942 5.425622
Si 6.729207 6.855146 6.808787
Si 9.478190 9.516826 6.870135
Si 5.315523 8.151695 8.147768
Si 8.151100 5.496832 8.163874
Si 6.769846 9.505755 9.475906
Si 9.542940 6.831695 9.551105
64
Step 700
Si 10.850277 10.832878 10.826358
Si 2.724373 2.653662 0.033899
Si 1.334688 1.302698 1.405126
Si 4.121901 4.108512 1.293482
Si 10.835767 2.789169 2.707515
Si 2.750947 10.839796 2.721582
Si 1.369935 4.091953 4.093033
Si 4.139673 1.386912 4.086957
Si 10.810153 10.851842 5.473420
Si 2.699985 2.705422 5.387234
Si 1.267100 1.377031 6.794134
Si 4.089177 4.052657 6.756573
Si 10.857047 2.778736 8.195276
Si 2.676554 10.829095 8.115160
Si 1.454003 4.074002 9.549038
Si 4.058121 1.292147 9.508645
Si 10.823607 5.470949 10.857963
Si 2.752000 8.193405 10.841479
Si 1.387368 6.803035 1.306343
Si 4.170755 9.531241 1.253557
Si 0.005452 8.170233 2.667153
Si 2.740637 5.446326 2.735573
Si 1.337785 9.540244 4.027647
Si 4.076461 6.768513 4.098749
Si 0.054001 5.402860 5.419937
Si 2.609730 8.159511 5.423057
Si 1.360864 6.774011 6.751284
Si 4.059232 9.518732 6.729495
Si 10.794399 8.066518 8.152287
Si 2.763191 5.423203 8.128354
Si 1.317206 9.456543 9.421533
Si 4.029795 6.786216 9.540538
Si 5.515955 0.082865 10.851796
Si 8.177419 2.796098 0.040176
Si 6.902285 1.454268 1.421453
Si 9.534129 4.111028 1.393809
Si 5.486658 2.682004 2.656556
Si 8.178742 10.810072 2.798043
Si 6.788414 4.035930 4.069205
Si 9.510882 1.337407 4.105872
Si 5.476904 0.022019 5.471811
Si 8.184053 2.754803 5.408259
Si 6.812605 1.397559 6.825186
Si 9.475513 4.073716 6.791421
Si 5.360879 2.715629 8.173910
Si 8.170408 10.823586 8.122976
Si 6.734736 4.070314 9.526564
Si 9.449482 1.399621 9.543247
Si 5.435022 5.477052 0.045973
Si 8.174473 8.098267 10.850864
Si 6.845662 6.821463 1.420394
Si 9.556020 9.479045 1.338708
Si 5.375767 8.125133 2.715372
Si 8.137962 5.459445 2.728777
Si 6.787105 9.436508 4.066152
Si 9.502748 6.829297 4.061239
Si 5.461498 5.464514 5.486209
Si 8.162747 8.105426 5.477041
Si 6.688302 6.786465 6.870243
Si 9.492591 9.396607 6.757508
Si 5.386623 8.163935 8.157743
Si 8.005632 5.396311 8.112587
Si 6.822895 9.496089 9.458354
Si 9.391699 6.727474 9.396170
64
Step 750
Si 10.850077 0.092759 10.804779
Si 2.723226 2.764363 0.053359
Si 1.397639 1.342465 1.362613
Si 4.093213 4.057338 1.460695
Si 10.835102 2.586292 2.727385
Si 2.762602 0.045326 2.699301
Si 1.342718 3.993171 4.023228
Si 4.153718 1.325749 4.027413
Si 0.086004 10.845241 5.459706
Si 2.712432 2.605101 5.390919
Si 1.346995 1.403484 6.855535
Si 4.059468 3.972943 6.714373
Si 0.064315 2.773818 8.155719
Si 2.610383 10.817953 8.162682
Si 1.391347 4.082057 9.509855
Si 4.031289 1.372128 9.535295
Si 0.013977 5.402639 0.009334
Si 2.714414 8.251285 10.857031
Si 1.399851 6.829813 1.287323
Si 4.155730 9.551262 1.395185
Si 0.041703 8.151340 2.637587
Si 2.655445 5.443165 2.626603
Si 1.429376 9.553177 4.039118
Si 3.951533 6.784690 4.046692
Si 0.045017 5.377489 5.378023
Si 2.681943 8.182572 5.479595
Si 1.367928 6.741408 6.795983
Si 4.049535 9.534726 6.802857
Si 10.762117 8.028106 8.084740
Si 2.796455 5.452600 8.147126
Si 1.206724 9.428955 9.509071
Si 4.111298 6.881350 9.480990
Si 5.401920 0.057507 10.806320
Si 8.151346 2.749884 0.019403
Si 6.817628 1.327685 1.346974
Si 9.569289 4.084156 1.448283
Si 5.563709 2.695353 2.746619
Si 8.171488 10.841346 2.711985
Si 6.812639 4.181139 4.108113
Si 9.434967 1.284766 4.156695
Si 5.436006 0.022976 5.468859
Si 8.061671 2.636909 5.430778
Si 6.799033 1.344318 6.855863
Si 9.506492 4.020751 6.672841
Si 5.330199 2.661709 8.133395
Si 8.240320 0.032430 8.162310
Si 6.653050 4.064631 9.567763
Si 9.524657 1.493551 9.471670
Si 5.338909 5.428865 0.061973
Si 8.146589 8.155904 0.044313
Si 6.817324 6.794187 1.415710
Si 9.540836 9.486773 1.325106
Si 5.464932 8.148984 2.758104
Si 8.271028 5.538254 2.710741
Si 6.787591 9.562660 4.081718
Si 9.592058 6.846824 4.109928
Si 5.331462 5.507388 5.370766
Si 8.071195 8.145272 5.414249
Si 6.700445 6.683729 6.790259
Si 9.444382 9.465952 6.699783
Si 5.490347 8.241148 8.137683
Si 8.114502 5.312910 8.093106
Si 6.839047 9.545925 9.538952
Si 9.453364 6.683350 9.541622
64
Step 800
Si 10.857549 10.859616 10.849486
Si 2.743522 2.789202 10.855546
Si 1.337391 1.406795 1.284909
Si 4.087038 4.120330 1.400762
Si 0.000363 2.650058 2.732367
Si 2.719824 10.858428 2.672169
Si 1.350805 3.989577 4.080374
Si 4.095808 1.370218 4.064330
Si 10.829182 10.788560 5.389285
Si 2.753550 2.704060 5.451978
Si 1.419763 1.275097 6.735083
Si 4.034521 4.129216 6.822660
Si 0.060247 2.724022 8.075382
Si 2.672509 10.840059 8.169757
Si 1.366578 4.159719 9.451862
Si 4.073038 1.416533 9.532294
Si 0.002375 5.402075 10.851334
Si 2.669056 8.154583 10.789660
Si 1.321801 6.794633 1.362752
Si 4.012808 9.458108 1.381984
Si 0.031204 8.181806 2.751404
Si 2.673535 5.384683 2.721789
Si 1.398210 9.528575 4.166015
Si 4.053396 6.799592 4.065735
Si 10.845377 5.428126 5.411573
Si 2.776317 8.128124 5.452173
Si 1.343402 6.761154 6.832973
Si 4.052217 9.492291 6.929700
Si 10.840874 8.113325 8.159395
Si 2.743372 5.495996 8.168056
Si 1.353072 9.494802 9.471203
Si 4.154851 6.835155 9.508740
Si 5.395428 10.840144 10.850464
Si 8.080656 2.730458 10.809734
Si 6.736139 1.340964 1.307823
Si 9.454348 4.037314 1.378841
Si 5.462478 2.772157 2.732050
Si 8.097659 0.011933 2.652930
Si 6.795837 4.105205 4.078301
Si 9.475980 1.341064 4.066255
Si 5.404072 10.774645 5.459863
Si 8.119483 2.701328 5.465149
Si 6.774223 1.375136 6.761129
Si 9.493081 4.178056 6.816087
Si 5.433163 2.756089 8.158866
Si 8.156210 0.045637 8.180016
Si 6.794577 4.095649 9.502796
Si 9.554720 1.405073 9.503847
Si 5.434583 5.414678 10.797206
Si 8.155066 8.133480 10.834495
Si 6.780639 6.763609 1.359903
Si 9.473291 9.511632 1.359975
Si 5.434037 8.167554 2.700699
Si 8.175528 5.402915 2.697123
Si 6.788925 9.471695 4.116857
Si 9.563337 6.770114 4.064628
Si 5.450617 5.436754 5.338622
Si 8.226723 8.132445 5.435132
Si 6.816001 6.748033 6.720887
Si 9.492314 9.512445 6.855575
Si 5.475252 8.137558 8.182196
Si 8.125943 5.425440 8.174407
Si 6.823753 9.512766 9.535557
Si 9.466384 6.721514 9.541857
64
Step 850
Si 10.833108 10.791731 0.068492
Si 2.706603 2.709091 10.792857
Si 1.344459 1.377411 1.342733
Si 4.009444 4.084006 1.308904
Si 10.856053 2.762552 2.739463
Si 2.681789 10.844048 2.716285
Si 1.395664 4.084629 4.104973
Si 4.041769 1.320014 4.110533
Si 10.830358 0.009186 5.380596
Si 2.758764 2.804000 5.448372
Si 1.357028 1.371266 6.748110
Si 4.092376 4.166558 6.839410
Si 10.824844 2.673980 8.132209
Si 2.785298 0.058659 8.085964
Si 1.318807 4.038454 9.483636
Si 4.129275 1.419710 9.518627
Si 10.846235 5.406045 0.036023
Si 2.652479 8.044833 0.090370
Si 1.317783 6.704807 1.445306
Si 3.969897 9.500719 1.358877
Si 10.847127 8.163778 2.736230
Si 2.739270 5.431006 2.818368
Si 1.294566 9.486928 4.106226
Si 4.159523 6.790640 4.097599
Si 10.824745 5.479315 5.493274
Si 2.778646 8.114556 5.366958
Si 1.324893 6.852216 6.761650
Si 4.137008 9.484974 6.767317
Si 0.032782 8.236204 8.189061
Si 2.670910 5.411545 8.113170
Si 1.470823 9.571985 9.514386
Si 4.052897 6.740216 9.554179
Si 5.404317 10.815762 0.048493
Si 8.172862 2.614811 10.861498
Si 6.739686 1.353544 1.352324
Si 9.424210 4.049232 1.299495
Si 5.241268 2.728708 2.697076
Si 8.071268 10.846584 2.720728
Si 6.765898 3.972732 4.049945
Si 9.533504 1.401606 3.986273
Si 5.434059 10.852834 5.391994
Si 8.200121 2.736675 5.454426
Si 6.794201 1.383882 6.703152
Si 9.573431 4.087797 6.875385
Si 5.473899 2.739400 8.080691
Si 8.053478 0.026830 8.107417
Si 6.893041 4.052958 9.447789
Si 9.516627 1.290283 9.468913
Si 5.542155 5.470969 10.853574
Si 8.134747 8.155060 0.027440
Si 6.790395 6.824189 1.354049
Si 9.467327 9.544005 1.451631
Si 5.397998 8.128188 2.675211
Si 8.071301 5.296408 2.694735
Si 6.787040 9.414982 4.075923
Si 9.452665 6.745260 4.029220
Si 5.581266 5.407078 5.446331
Si 8.198489 8.131331 5.410572
Si 6.877818 6.907447 6.760815
Si 9.522525 9.537460 6.848074
Si 5.431134 8.083165 8.171089
Si 8.211429 5.535240 8.090386
Si 6.749420 9.501490 9.492867
Si 9.577205 6.875032 9.524325
64
Step 900
Si 0.047445 10.835315 0.009189
Si 2.730374 2.624579 10.857949
Si 1.354845 1.341697 1.404028
Si 4.084856 3.970742 1.335573
Si 0.021705 2.754429 2.757026
Si 2.628887 0.007342 2.749404
Si 1.394538 4.143260 4.076429
Si 3.964598 1.367780 4.066373
Si 0.082018 0.111493 5.465726
Si 2.692189 2.740496 5.482508
Si 1.363398 1.412739 6.854006
Si 4.105979 4.097862 6.820660
Si 10.787494 2.668192 8.184647
Si 2.800306 0.015291 8.113253
Si 1.319862 4.012857 9.544905
Si 4.111978 1.341064 9.417149
Si 10.832026 5.435365 10.859097
Si 2.736900 8.139439 0.073935
Si 1.384216 6.784901 1.368430
Si 4.059578 9.538611 1.388054
Si 10.788488 8.038256 2.722699
Si 2.782138 5.432431 2.719979
Si 1.290444 9.472620 4.020872
Si 4.089562 6.770147 4.148044
Si 0.028322 5.534923 5.482142
Si 2.696859 8.166948 5.419313
Si 1.388218 6.864473 6.765801
Si 4.069127 9.504616 6.698190
Si 0.083259 8.261869 8.134512
Si 2.704151 5.389024 8.102828
Si 1.422825 9.578768 9.522992
Si 3.961827 6.744636 9.518695
Si 5.372590 0.011579 10.848098
Si 8.110927 2.665100 0.033078
Si 6.781933 1.333816 1.351272
Si 9.505279 4.045591 1.295406
Si 5.334496 2.679617 2.661023
Si 8.173830 0.060596 2.748510
Si 6.712838 4.006501 4.030766
Si 9.575376 1.442142 4.034589
Si 5.442226 0.055683 5.380257
Si 8.160233 2.751720 5.339949
Si 6.838095 1.353717 6.767823
Si 9.554472 4.003958 6.762589
Si 5.516158 2.739329 8.143331
Si 8.152953 10.753840 8.110955
Si 6.831724 4.106496 9.499357
Si 9.440798 1.208141 9.544026
Si 5.416380 5.400391 10.850219
Si 8.104898 8.189188 0.016359
Si 6.748707 6.722722 1.232840
Si 9.522672 9.512686 1.370357
Si 5.449151 8.083867 2.731587
Si 8.109661 5.387746 2.711683
Si 6.779358 9.573079 3.992419
Si 9.423229 6.727031 4.103408
Si 5.497398 5.430022 5.539492
Si 8.042984 8.126691 5.444274
Si 6.836986 6.847358 6.924386
Si 9.550535 9.546472 6.694415
Si 5.337355 8.128484 8.122845
Si 8.273913 5.442458 8.224517
Si 6.711805 9.486433 9.510950
Si 9.604625 6.935387 9.478811
64
Step 950
Si 0.000591 0.020018 10.825089
Si 2.659971 2.720420 10.842175
Si 1.352218 1.354172 1.355008
Si 4.104625 4.007472 1.427026
Si 0.032243 2.774677 2.726540
Si 2.705785 10.823595 2.725108
Si 1.374919 4.133697 4.095512
Si 4.064161 1.394668 4.076843
Si 0.006208 10.831525 5.491086
Si 2.672349 2.744846 5.451273
Si 1.310352 1.353507 6.820020
Si 4.076183 4.053788 6.805450
Si 10.835267 2.765613 8.208358
Si 2.724396 0.003141 8.180125
Si 1.329666 4.086756 9.551367
Si 4.101506 1.334654 9.455233
Si 0.051233 5.476718 10.833314
Si 2.787353 8.228581 10.846406
Si 1.388223 6.838206 1.316817
Si 4.174473 9.452765 1.413940
Si 10.806161 8.094981 2.723337
Si 2.721431 5.455326 2.658087
Si 1.351702 9.483436 4.008922
Si 4.113033 6.784963 4.028724
Si 10.849070 5.415510 5.410804
Si 2.678548 8.150653 5.404310
Si 1.384413 6.725506 6.799145
Si 4.087341 9.536642 6.745378
Si 10.828341 8.146184 8.085037
Si 2.715176 5.378640 8.228448
Si 1.332039 9.474615 9.503865
Si 4.044056 6.828377 9.435990
Si 5.435686 10.848898 10.856946
Si 8.144714 2.773673 10.859141
Si 6.827163 1.311622 1.331856
Si 9.553794 4.145163 1.374429
Si 5.551303 2.717625 2.704903
Si 8.216913 10.858087 2.732727
Si 6.782340 4.185026 4.091147
Si 9.549619 1.397287 4.122522
Si 5.452261 0.021138 5.416000
Si 8.126214 2.784374 5.447073
Si 6.854856 1.289233 6.804605
Si 9.456054 4.066769 6.783154
Si 5.500287 2.679267 8.141995
Si 8.145981 10.802619 8.161266
Si 6.812600 4.095011 9.512621
Si 9.446459 1.366056 9.543984
Si 5.359774 5.396757 10.842993
Si 8.163893 8.106557 10.822400
Si 6.719290 6.758952 1.315659
Si 9.499061 9.405370 1.296903
Si 5.487260 8.161232 2.791242
Si 8.151697 5.525896 2.702056
Si 6.793353 9.553674 4.047350
Si 9.432729 6.754893 4.109861
Si 5.323126 5.437509 5.443233
Si 8.069084 8.138602 5.462394
Si 6.745094 6.718565 6.785170
Si 9.485706 9.496935 6.711138
Si 5.415232 8.155341 8.135596
Si 8.139670 5.402669 8.231943
Si 6.781190 9.459239 9.482155
Si 9.498567 6.758309 9.488797
64
Step 1000
Si 10.833797 0.000614 10.859259
Si 2.720271 2.736692 0.061904
Si 1.342654 1.350385 1.348043
Si 4.093760 4.129918 1.382129
Si 0.003387 2.675992 2.667229
Si 2.792749 0.031923 2.742473
Si 1.320166 4.014821 4.079647
Si 4.188275 1.373118 4.078339
Si 10.780223 10.778766 5.403509
Si 2.740328 2.640030 5.385881
Si 1.329182 1.302177 6.723802
Si 4.030942 3.978140 6.775080
Si 0.062004 2.713551 8.091900
Si 2.640285 0.020638 8.172407
Si 1.435783 4.069329 9.516977
Si 4.043377 1.292267 9.582098
Si 0.034236 5.484973 0.054446
Si 2.693078 8.199261 10.762402
Si 1.382756 6.888193 1.365760
Si 4.086157 9.548232 1.330445
Si 0.084693 8.281543 2.690623
Si 2.679038 5.412181 2.681776
Si 1.479254 9.554566 4.087730
Si 4.016789 6.834157 4.005231
Si 10.839232 5.314842 5.397407
Si 2.682629 8.144076 5.472540
Si 1.334787 6.727584 6.777213
Si 3.998883 9.497291 6.841270
Si 10.860106 8.007762 8.109355
Si 2.706872 5.485639 8.165966
Si 1.293479 9.447692 9.431085
Si 4.166868 6.821157 9.485615
Si 5.544527 0.024243 0.015092
Si 8.236159 2.782474 0.048922
Si 6.875484 1.398331 1.434519
Si 9.524920 4.111902 1.472948
Si 5.460659 2.739723 2.715015
Si 8.206424 10.857841 2.694493
Si 6.830713 4.073520 4.083905
Si 9.463262 1.313504 4.085574
Si 5.393650 10.845586 5.456323
Si 8.193240 2.686467 5.496034
Si 6.761320 1.383920 6.760686
Si 9.426340 4.095046 6.793193
Si 5.333092 2.641006 8.165075
Si 8.181666 0.103720 8.197606
Si 6.711589 3.992370 9.534969
Si 9.566924 1.491385 9.500706
Si 5.425408 5.440488 0.026277
Si 8.184571 8.110385 0.010338
Si 6.785195 6.823003 1.429733
Si 9.463627 9.494655 1.306813
Si 5.415458 8.261000 2.691356
Si 8.159114 5.463919 2.743647
Si 6.880739 9.496569 4.143890
Si 9.565151 6.845320 4.014876
Si 5.323138 5.391532 5.331433
Si 8.229792 8.116993 5.460829
Si 6.661713 6.753335 6.670641
Si 9.487092 9.462553 6.854252
Si 5.425545 8.183694 8.109174
Si 7.949059 5.406850 8.073781
Si 6.820532 9.496721 9.523045
Si 9.401857 6.676435 9.485321
64
Step 1050
Si 0.000664 0.019915 10.808786
Si 2.752084 2.738602 0.013086
Si 1.356854 1.350937 1.344584
Si 4.025591 4.186166 1.293093
Si 0.003418 2.651570 2.677264
Si 2.773948 0.026215 2.665091
Si 1.343858 4.020308 4.046038
Si 4.161400 1.296454 4.056778
Si 10.860773 10.848947 5.469768
Si 2.738013 2.656292 5.425762
Si 1.370634 1.409458 6.791855
Si 4.087742 4.052475 6.738697
Si 0.076092 2.770939 8.135863
Si 2.643845 10.845063 8.147259
Si 1.413404 4.116197 9.482101
Si 4.026996 1.377201 9.548139
Si 10.813934 5.404635 10.827974
Si 2.700113 8.100945 10.842907
Si 1.359989 6.754490 1.274477
Si 4.095540 9.528328 1.317715
Si 0.101858 8.179079 2.689936
Si 2.646789 5.471545 2.758033
Si 1.386914 9.565280 4.092774
Si 4.034949 6.815215 4.072748
Si 0.006031 5.386720 5.396054
Si 2.719296 8.116666 5.451742
Si 1.336136 6.762404 6.831780
Si 4.041059 9.504359 6.831363
Si 10.781069 8.038286 8.191054
Si 2.716914 5.462751 8.092843
Si 1.312948 9.462991 9.503726
Si 4.125855 6.760603 9.553158
Si 5.447378 0.044040 0.031417
Si 8.164219 2.754692 10.837354
Si 6.825886 1.403345 1.323626
Si 9.521683 4.079544 1.351735
Si 5.399353 2.740231 2.709604
Si 8.112388 10.820019 2.724684
Si 6.781071 4.014109 4.070145
Si 9.472919 1.250821 4.122841
Si 5.478641 10.791014 5.495630
Si 8.132191 2.629312 5.443607
Si 6.734273 1.375583 6.884521
Si 9.479969 4.076030 6.760719
Si 5.313524 2.769402 8.132194
Si 8.189131 0.040004 8.164965
Si 6.690722 4.041670 9.502460
Si 9.603015 1.440479 9.427762
Si 5.493776 5.490030 0.008706
Si 8.112568 8.165658 10.859717
Si 6.842331 6.876256 1.457418
Si 9.518959 9.560913 1.361846
Si 5.371184 8.139861 2.674234
Si 8.181347 5.421535 2.773821
Si 6.783429 9.430848 4.154515
Si 9.603344 6.903087 4.056437
Si 5.437140 5.423013 5.416987
Si 8.164978 8.124183 5.402055
Si 6.773643 6.802529 6.806563
Si 9.448760 9.454782 6.843409
Si 5.493780 8.165790 8.192824
Si 8.062392 5.403679 8.058243
Si 6.846346 9.597098 9.503664
Si 9.426946 6.673411 9.519850
64
Step 1100
Si 0.018386 10.852251 10.855723
Si 2.744773 2.729060 10.844693
Si 1.346911 1.367996 1.390427
Si 4.074625 4.050002 1.378924
Si 10.840893 2.709105 2.770898
Si 2.665130 10.843200 2.675347
Si 1.350062 4.085230 4.053524
Si 4.043581 1.345739 4.036359
Si 0.121590 0.045851 5.420729
Si 2.709096 2.735036 5.372519
Si 1.400210 1.390711 6.804876
Si 4.100792 4.141455 6.729825
Si 10.836851 2.763041 8.120839
Si 2.750776 10.798889 8.156460
Si 1.348736 4.135432 9.467691
Si 4.030401 1.434409 9.427354
Si 10.774281 5.351203 10.829959
Si 2.739870 8.093181 0.026945
Si 1.303266 6.735839 1.347577
Si 4.079129 9.436727 1.386817
Si 10.771745 8.082262 2.761045
Si 2.720814 5.405959 2.718963
Si 1.251482 9.482937 4.074883
Si 4.060377 6.783341 4.170496
Si 0.034514 5.504025 5.431523
Si 2.725468 8.160703 5.420347
Si 1.372992 6.824780 6.814212
Si 4.145662 9.472177 6.820050
Si 10.814040 8.230856 8.181123
Si 2.751220 5.476547 8.074499
Si 1.365359 9.486457 9.561813
Si 4.066548 6.765796 9.537371
Si 5.324167 0.048235 10.835917
Si 8.021273 2.684115 10.805590
Si 6.731274 1.352412 1.323500
Si 9.461873 3.983215 1.318516
Si 5.482256 2.664110 2.732047
Si 8.082570 0.008294 2.719622
Si 6.769348 4.074797 4.042791
Si 9.495531 1.284466 4.137841
Si 5.435804 0.001801 5.460546
Si 8.067528 2.703089 5.320879
Si 6.812436 1.316063 6.828976
Si 9.521163 4.055666 6.678306
Si 5.481080 2.818923 8.116312
Si 8.148114 10.785548 8.103241
Si 6.842361 4.156014 9.529497
Si 9.487864 1.327579 9.488979
Si 5.401648 5.456182 0.009619
Si 8.146323 8.191416 0.037757
Si 6.878024 6.781136 1.352987
Si 9.577602 9.553222 1.430620
Si 5.451610 7.990452 2.721691
Si 8.172505 5.386942 2.714608
Si 6.735533 9.530481 4.053638
Si 9.516754 6.757772 4.103763
Si 5.534596 5.475776 5.440198
Si 8.072538 8.146189 5.380064
Si 6.880536 6.798442 6.908737
Si 9.529967 9.529448 6.749174
Si 5.479244 8.177504 8.197660
Si 8.281333 5.417997 8.138246
Si 6.764172 9.542574 9.567548
Si 9.499397 6.863948 9.533319
64
Step 1150
Si 0.001411 0.046399 0.049597
Si 2.664662 2.722756 10.791056
Si 1.380233 1.370573 1.358374
Si 4.042315 4.010831 1.351229
Si 10.858136 2.758009 2.710934
Si 2.657194 10.822682 2.712663
Si 1.371534 4.100114 4.093491
Si 3.942593 1.351442 4.081625
Si 0.024693 10.856286 5.357784
Si 2.736775 2.805945 5.434132
Si 1.391073 1.343739 6.775287
Si 4.077391 4.072753 6.844400
Si 10.813859 2.619693 8.115958
Si 2.785991 0.087043 8.150142
Si 1.258535 4.041483 9.474518
Si 4.120813 1.421956 9.484496
Si 0.074239 5.418178 0.057092
Si 2.684527 8.139017 0.089835
Si 1.334836 6.749913 1.475151
Si 4.013056 9.430156 1.402216
Si 10.749758 8.102134 2.704665
Si 2.793168 5.400077 2.676104
Si 1.327909 9.455864 4.078633
Si 4.109453 6.783832 4.065842
Si 10.848254 5.484701 5.513206
Si 2.781218 8.170657 5.415247
Si 1.404141 6.833075 6.762874
Si 4.121446 9.496308 6.792453
Si 0.085622 8.317425 8.125803
Si 2.693715 5.400178 8.169346
Si 1.458063 9.564933 9.546949
Si 4.031675 6.776231 9.526677
Si 5.292401 10.781036 10.837926
Si 8.109303 2.639069 10.819721
Si 6.707187 1.274402 1.375760
Si 9.494478 3.983068 1.329160
Si 5.352238 2.664411 2.721230
Si 8.135838 0.026482 2.733472
Si 6.772328 4.064660 4.096826
Si 9.511892 1.426906 4.008346
Si 5.366168 0.064684 5.355111
Si 8.187299 2.794704 5.443975
Si 6.803808 1.373057 6.702719
Si 9.576202 4.025788 6.882428
Si 5.557177 2.679913 8.146861
Si 8.099604 10.848894 8.127544
Si 6.920434 4.094597 9.446446
Si 9.446753 1.274916 9.493983
Si 5.392463 5.331260 10.840931
Si 8.179972 8.123746 0.000314
Si 6.748017 6.744066 1.294745
Si 9.499839 9.500923 1.383946
Si 5.473177 8.167872 2.713090
Si 8.142052 5.381181 2.631463
Si 6.782409 9.544613 4.049856
Si 9.409368 6.706416 4.083566
Si 5.420347 5.469420 5.489754
Si 8.150623 8.236590 5.462981
Si 6.827520 6.838181 6.741556
Si 9.553634 9.557498 6.810510
Si 5.412152 8.114014 8.125548
Si 8.244467 5.534220 8.169111
Si 6.750256 9.461326 9.548312
Si 9.626309 6.901707 9.529031
64
Step 1200
Si 10.839128 10.804218 0.009750
Si 2.696357 2.660033 10.846846
Si 1.338324 1.377205 1.327696
Si 4.095191 4.087237 1.313086
Si 0.014410 2.779898 2.687774
Si 2.676076 10.845199 2.756205
Si 1.353696 4.112478 4.155338
Si 4.071705 1.404536 4.097282
Si 10.771515 10.854307 5.414146
Si 2.710645 2.776810 5.536073
Si 1.322889 1.329474 6.720851
Si 4.060995 4.091611 6.844326
Si 10.803846 2.680703 8.147077
Si 2.713379 0.074840 8.095382
Si 1.350184 4.023184 9.538503
Si 4.200548 1.272095 9.538384
Si 0.036737 5.507742 0.011141
Si 2.677445 8.135494 10.849135
Si 1.369032 6.802885 1.397523
Si 4.054874 9.518784 1.349469
Si 0.017974 8.175116 2.676839
Si 2.747096 5.411387 2.765560
Si 1.386955 9.495103 4.139141
Si 4.158049 6.793670 4.005523
Si 10.856563 5.490373 5.443515
Si 2.725700 8.128623 5.428623
Si 1.383083 6.795882 6.775114
Si 4.049689 9.527288 6.791966
Si 0.095470 8.174873 8.110191
Si 2.658183 5.396354 8.237240
Si 1.424940 9.605845 9.461527
Si 4.042113 6.771562 9.501133
Si 5.554309 10.786679 0.050813
Si 8.190515 2.731175 0.071314
Si 6.758151 1.363743 1.398737
Si 9.492445 4.152577 1.356871
Si 5.362283 2.767177 2.656742
Si 8.181037 0.038773 2.685248
Si 6.749502 4.045641 4.058270
Si 9.528127 1.511364 3.988647
Si 5.422903 0.012090 5.404784
Si 8.187962 2.771764 5.476695
Si 6.820097 1.401065 6.734765
Si 9.542880 4.120008 6.856756
Si 5.439479 2.667879 8.171385
Si 8.079538 10.839828 8.155849
Si 6.807436 4.019184 9.454405
Si 9.450496 1.322223 9.555868
Si 5.487627 5.395840 10.789074
Si 8.140286 8.091624 10.825189
Si 6.729777 6.711473 1.301936
Si 9.413310 9.442338 1.319695
Si 5.493128 8.207933 2.714339
Si 8.046767 5.420305 2.743052
Si 6.843539 9.463491 4.089640
Si 9.444997 6.750370 4.034608
Si 5.435702 5.364758 5.452728
Si 8.218995 8.101295 5.475543
Si 6.719283 6.796989 6.723838
Si 9.530603 9.452301 6.812155
Si 5.336770 8.078267 8.160419
Si 8.119489 5.481739 8.209451
Si 6.772273 9.405059 9.434151
Si 9.581506 6.826243 9.448672
64
Step 1250
Si 10.844041 10.822355 10.836815
Si 2.734273 2.626207 0.048709
Si 1.373461 1.329029 1.362987
Si 4.036699 4.051256 1.379142
Si 0.006217 2.684084 2.745785
Si 2.753397 0.053889 2.744307
Si 1.382556 4.104262 4.032289
Si 4.140844 1.332311 4.084187
Si 10.835701 0.034376 5.482826
Si 2.671835 2.628603 5.442204
Si 1.272942 1.416172 6.812206
Si 4.056390 4.035668 6.775986
Si 10.808825 2.814631 8.208513
Si 2.662137 10.813179 8.104447
Si 1.418403 3.996066 9.608128
Si 4.040578 1.269692 9.501491
Si 10.805493 5.476835 10.818625
Si 2.768265 8.251338 10.857641
Si 1.380248 6.856215 1.288496
Si 4.173591 9.597245 1.429630
Si 0.101579 8.191607 2.711329
Si 2.644304 5.503223 2.739412
Si 1.379974 9.563216 4.058195
Si 4.070246 6.772352 4.060171
Si 0.021408 5.414803 5.349504
Si 2.668550 8.178602 5.363527
Si 1.378148 6.768694 6.803406
Si 4.046870 9.560752 6.683976
Si 10.791148 8.048222 8.139072
Si 2.674372 5.369371 8.175265
Si 1.283172 9.463954 9.493795
Si 4.052154 6.838240 9.502407
Si 5.567544 0.062975 0.015645
Si 8.194582 2.796235 0.047494
Si 6.896137 1.412470 1.351541
Si 9.516088 4.195918 1.381218
Si 5.439691 2.735559 2.712134
Si 8.195905 10.840550 2.741694
Si 6.775524 4.060035 4.059521
Si 9.550947 1.376779 4.076223
Si 5.520265 10.820444 5.458391
Si 8.120147 2.646325 5.432727
Si 6.798411 1.283721 6.867156
Si 9.497174 4.081131 6.688232
Si 5.372048 2.685782 8.132220
Si 8.186254 10.849394 8.169064
Si 6.713743 4.074185 9.541800
Si 9.516876 1.393346 9.517559
Si 5.446186 5.484801 0.008711
Si 8.140801 8.149329 10.859527
Si 6.772678 6.817963 1.363188
Si 9.534082 9.496327 1.347291
Si 5.434461 8.163429 2.763763
Si 8.174041 5.494754 2.788882
Si 6.790384 9.480834 4.084425
Si 9.582250 6.901027 4.104553
Si 5.395646 5.409129 5.396338
Si 8.089218 8.062720 5.396868
Si 6.744703 6.710078 6.843390
Si 9.455174 9.479978 6.704074
Si 5.393432 8.130954 8.118659
Si 8.117678 5.297531 8.101855
Si 6.825533 9.514722 9.426397
Si 9.410577 6.671130 9.438986
64
Step 1300
Si 0.056632 0.040006 10.797009
Si 2.767808 2.756906 0.025465
Si 1.386466 1.333560 1.383543
Si 4.095086 4.034612 1.409777
Si 10.855752 2.628307 2.752285
Si 2.844558 0.027501 2.675391
Si 1.399034 4.036864 3.951992
Si 4.135737 1.394131 4.088331
Si 0.015984 0.007265 5.500043
Si 2.698792 2.633611 5.388741
Si 1.405649 1.374436 6.830908
Si 4.019118 4.031275 6.797315
Si 0.090538 2.755338 8.142905
Si 2.678909 10.800061 8.197469
Si 1.395977 4.121395 9.492279
Si 3.967222 1.348646 9.467764
Si 10.808497 5.408610 0.020499
Si 2.757551 8.240555 10.839472
Si 1.410155 6.837843 1.301056
Si 4.155386 9.546372 1.289831
Si 0.003220 8.198391 2.713564
Si 2.655431 5.432904 2.638904
Si 1.368307 9.544341 4.043638
Si 3.942362 6.759741 4.119402
Si 0.054897 5.371943 5.408987
Si 2.649980 8.134429 5.475555
Si 1.356985 6.756444 6.839703
Si 4.016540 9.471741 6.808538
Si 10.763400 8.037245 8.154671
Si 2.782498 5.470486 8.083957
Si 1.254119 9.362209 9.444915
Si 4.083051 6.831739 9.496920
Si 5.391482 0.085539 10.803486
Si 8.122343 2.785482 10.842513
Si 6.866272 1.365298 1.322683
Si 9.538394 4.094734 1.352346
Si 5.537275 2.708086 2.745299
Si 8.154010 10.835449 2.709139
Si 6.878448 4.130360 4.086721
Si 9.511218 1.242446 4.106864
Si 5.409547 10.825137 5.481967
Si 8.110341 2.683582 5.383538
Si 6.781248 1.367690 6.867325
Si 9.470065 4.029348 6.716536
Si 5.353304 2.728455 8.151805
Si 8.216196 10.861097 8.222494
Si 6.658417 4.092217 9.583858
Si 9.542536 1.451742 9.524610
Si 5.351685 5.508436 0.064592
Si 8.145217 8.153036 0.006508
Si 6.828815 6.815662 1.392399
Si 9.565628 9.546827 1.319239
Si 5.379881 8.091028 2.712523
Si 8.242466 5.471394 2.686799
Si 6.807874 9.519844 4.059920
Si 9.550377 6.840169 4.084569
Si 5.339656 5.394997 5.400479
Si 8.127142 8.127056 5.466936
Si 6.728147 6.772038 6.803405
Si 9.481295 9.518291 6.807872
Si 5.490166 8.203226 8.174165
Si 8.049578 5.357243 8.050107
Si 6.808582 9.552714 9.565241
Si 9.408755 6.696476 9.507233
64
Step 1350
Si 0.049993 0.078937 0.041717
Si 2.694327 2.859792 0.001188
Si 1.388986 1.359672 1.356956
Si 4.121426 4.141161 1.359504
Si 0.026143 2.626105 2.667844
Si 2.705454 10.836230 2.709724
Si 1.267925 3.995237 4.092306
Si 4.116565 1.338180 4.079039
Si 10.843940 10.736633 5.381988
Si 2.765942 2.726100 5.372346
Si 1.378822 1.295461 6.711807
Si 4.085022 4.122206 6.752263
Si 0.110968 2.668689 8.073641
Si 2.757653 0.038326 8.145316
Si 1.316519 4.158075 9.446289
Si 4.085372 1.472608 9.537112
Si 0.008405 5.376694 0.040277
Si 2.648373 8.055741 0.033191
Si 1.300651 6.731682 1.424661
Si 4.009845 9.407975 1.344988
Si 10.804840 8.169736 2.755172
Si 2.703155 5.358593 2.715526
Si 1.397191 9.470622 4.064176
Si 4.036412 6.833581 4.059116
Si 10.779783 5.381261 5.453027
Si 2.740366 8.107672 5.478190
Si 1.277144 6.745695 6.725795
Si 4.105245 9.433535 6.856438
Si 10.831623 8.148685 8.161448
Si 2.756139 5.514145 8.136298
Si 1.356032 9.544966 9.461064
Si 4.126664 6.805726 9.517587
Si 5.384852 10.813502 10.856164
Si 8.114505 2.717785 10.813445
Si 6.738684 1.345522 1.380191
Si 9.552819 4.015238 1.308451
Si 5.482477 2.742421 2.703709
Si 8.045760 10.776417 2.702459
Si 6.865120 4.074206 4.103566
Si 9.431227 1.319497 4.087167
Si 5.415517 10.861865 5.467936
Si 8.171791 2.761182 5.491441
Si 6.772849 1.403343 6.703209
Si 9.506803 4.099946 6.902773
Si 5.454854 2.728747 8.133757
Si 8.147080 0.112807 8.112859
Si 6.801192 4.087319 9.402971
Si 9.548242 1.410227 9.482828
Si 5.478165 5.388441 0.008703
Si 8.191009 8.116161 0.033887
Si 6.767421 6.801309 1.425796
Si 9.507341 9.518018 1.338369
Si 5.390561 8.143100 2.745455
Si 8.172581 5.405481 2.692627
Si 6.781482 9.510258 4.118002
Si 9.508822 6.733412 4.059454
Si 5.453970 5.461493 5.387186
Si 8.168102 8.203747 5.440630
Si 6.798144 6.817929 6.713006
Si 9.463355 9.530174 6.902486
Si 5.495470 8.179098 8.173748
Si 8.075355 5.537848 8.080920
Si 6.827223 9.512335 9.560296
Si 9.474301 6.777454 9.570511
64
Step 1400
Si 0.023776 10.827550 0.011586
Si 2.748879 2.697172 10.794752
Si 1.313355 1.393274 1.315064
Si 4.065272 4.155475 1.346497
Si 10.846290 2.712312 2.716698
Si 2.616349 10.807611 2.760425
Si 1.295226 4.018865 4.203249
Si 3.998202 1.352852 4.018490
Si 0.018527 0.024831 5.358830
Si 2.752830 2.777853 5.447574
Si 1.381145 1.296865 6.746094
Si 4.081579 4.150763 6.712932
Si 10.860303 2.668765 8.103033
Si 2.744134 0.068862 8.152279
Si 1.382525 4.047626 9.502670
Si 4.182860 1.347189 9.517032
Si 10.860477 5.387336 0.016727
Si 2.656266 8.039955 0.003463
Si 1.311510 6.716426 1.398727
Si 3.975518 9.469578 1.379978
Si 10.835444 8.063880 2.712710
Si 2.696244 5.384319 2.825068
Si 1.274759 9.474568 4.135782
Si 4.148074 6.772214 4.039657
Si 0.021291 5.521094 5.407268
Si 2.747808 8.172204 5.396039
Si 1.353688 6.862469 6.803740
Si 4.101928 9.560441 6.847678
Si 0.121951 8.289064 8.161477
Si 2.669004 5.403661 8.162352
Si 1.483941 9.608391 9.535755
Si 4.038683 6.778543 9.521850
Si 5.403673 10.815701 0.042120
Si 8.137574 2.597042 10.861403
Si 6.679017 1.356513 1.347140
Si 9.458532 3.958542 1.346736
Si 5.366247 2.709531 2.668732
Si 8.114854 0.056314 2.710410
Si 6.737111 4.017417 4.028770
Si 9.476401 1.366819 4.044052
Si 5.399570 0.012370 5.395243
Si 8.216523 2.700853 5.416301
Si 6.789382 1.353544 6.788525
Si 9.557397 4.085467 6.795988
Si 5.432370 2.765037 8.114578
Si 8.120794 0.015563 8.105116
Si 6.895967 4.057290 9.470747
Si 9.519405 1.284705 9.460812
Si 5.501196 5.402625 10.811565
Si 8.139292 8.157080 10.860314
Si 6.785513 6.757599 1.338391
Si 9.483625 9.528423 1.411506
Si 5.421007 8.161161 2.725347
Si 8.093224 5.367150 2.722162
Si 6.764178 9.513785 4.059174
Si 9.441570 6.702883 4.062339
Si 5.519951 5.455453 5.418701
Si 8.174064 8.210778 5.426441
Si 6.844022 6.816006 6.819244
Si 9.532458 9.519886 6.781976
Si 5.372836 8.147891 8.203941
Si 8.256014 5.508005 8.241181
Si 6.756880 9.501897 9.526426
Si 9.585511 6.966665 9.523141
64
Step 1450
Si 10.811887 10.817053 0.014985
Si 2.700636 2.601562 0.000992
Si 1.344140 1.371100 1.340144
Si 3.990033 4.004939 1.315240
Si 10.855213 2.816783 2.698657
Si 2.678235 10.860669 2.674167
Si 1.463906 4.190434 4.074994
Si 3.968863 1.301046 4.032112
Si 0.040250 0.101901 5.447249
Si 2.696183 2.772474 5.486914
Si 1.324815 1.440915 6.897960
Si 4.101877 4.056279 6.832738
Si 10.753690 2.779764 8.197199
Si 2.783745 10.853768 8.127684
Si 1.343784 3.991181 9.563368
Si 4.094643 1.384524 9.460982
Si 0.007374 5.434882 10.836467
Si 2.781974 8.177807 0.075698
Si 1.349982 6.761396 1.362768
Si 4.082267 9.551021 1.447273
Si 10.840856 8.052640 2.666966
Si 2.774327 5.507206 2.695170
Si 1.298787 9.490193 4.060430
Si 4.128282 6.744338 4.125457
Si 0.067364 5.518730 5.472735
Si 2.725241 8.194683 5.392563
Si 1.505581 6.878603 6.822872
Si 4.123452 9.536731 6.681957
Si 0.038936 8.179150 8.130380
Si 2.642732 5.337594 8.174300
Si 1.414967 9.471192 9.563044
Si 4.021912 6.739799 9.510927
Si 5.391404 10.827693 0.010848
Si 8.178839 2.677044 10.823663
Si 6.778488 1.363235 1.361567
Si 9.449469 4.054741 1.357424
Si 5.296294 2.690996 2.740398
Si 8.203904 0.055631 2.727727
Si 6.716469 4.055708 4.048586
Si 9.503822 1.453360 4.066127
Si 5.418495 0.065254 5.359993
Si 8.135195 2.734213 5.443962
Si 6.815603 1.322612 6.816884
Si 9.474927 4.076494 6.728990
Si 5.509215 2.767424 8.125660
Si 8.084007 10.754646 8.119822
Si 6.847862 4.118910 9.547553
Si 9.490653 1.256071 9.491370
Si 5.377476 5.410574 10.817324
Si 8.178808 8.152527 10.823718
Si 6.815814 6.766923 1.258184
Si 9.491141 9.474730 1.393921
Si 5.490341 8.094017 2.706159
Si 8.087862 5.408638 2.692082
Si 6.755222 9.475221 4.072555
Si 9.432372 6.780792 4.087994
Si 5.503032 5.474303 5.508590
Si 8.079391 8.091093 5.455890
Si 6.874580 6.804431 6.900364
Si 9.483534 9.488875 6.672418
Si 5.382671 8.105341 8.110045
Si 8.284549 5.422131 8.193222
Si 6.728694 9.471637 9.478193
Si 9.567930 6.830385 9.458368
64
Step 1500
Si 10.829199 10.810803 10.809421
Si 2.641429 2.644178 0.037941
Si 1.285147 1.327714 1.412622
Si 4.084216 3.973285 1.359731
Si 0.015450 2.817883 2.759745
Si 2.739952 0.037332 2.676365
Si 1.427299 4.187385 4.011370
Si 4.076042 1.406271 4.112305
Si 10.820464 0.028204 5.476861
Si 2.598234 2.756417 5.474946
Si 1.379483 1.352983 6.786264
Si 4.046511 3.993786 6.893714
Si 10.848113 2.642421 8.151895
Si 2.667435 10.823669 8.107950
Si 1.270002 4.094771 9.510391
Si 4.047990 1.293566 9.450399
Si 0.000879 5.504243 0.050293
Si 2.768965 8.263963 10.838348
Si 1.417940 6.898809 1.366606
Si 4.185004 9.523177 1.372692
Si 10.847554 8.188622 2.746307
Si 2.762651 5.449733 2.686384
Si 1.339806 9.550472 4.047644
Si 4.091171 6.835782 4.101771
Si 0.003979 5.386484 5.426720
Si 2.699864 8.162612 5.408979
Si 1.362402 6.731358 6.720667
Si 4.033195 9.483719 6.762536
Si 10.848939 8.102335 8.089392
Si 2.759869 5.470339 8.174005
Si 1.280638 9.445967 9.449003
Si 4.103356 6.787900 9.520745
Si 5.494152 0.080036 10.850165
Si 8.113365 2.756567 0.078855
Si 6.873844 1.314960 1.419944
Si 9.524833 4.150870 1.418986
Si 5.471677 2.702043 2.765343
Si 8.214282 0.038966 2.699776
Si 6.778703 4.092938 4.090818
Si 9.563585 1.393553 4.088641
Si 5.474621 10.855451 5.403278
Si 8.127811 2.788903 5.416921
Si 6.831800 1.336273 6.737134
Si 9.504235 4.091287 6.782314
Si 5.461491 2.653058 8.179985
Si 8.137350 10.777999 8.149330
Si 6.732458 4.039176 9.517970
Si 9.422483 1.354089 9.537489
Si 5.399421 5.394533 0.047761
Si 8.147821 8.137028 10.835019
Si 6.762013 6.794857 1.369824
Si 9.443363 9.485290 1.346301
Si 5.525346 8.163300 2.711266
Si 8.165487 5.435311 2.694834
Si 6.867284 9.532391 4.061733
Si 9.542263 6.805420 4.081465
Si 5.334397 5.314994 5.456914
Si 8.176977 8.104090 5.410542
Si 6.672596 6.793239 6.726501
Si 9.543585 9.510598 6.764172
Si 5.424171 8.124554 8.111372
Si 8.083280 5.397515 8.074205
Si 6.806015 9.495389 9.499583
Si 9.542114 6.693147 9.461545
64
Step 1550
Si 0.001744 0.053503 10.841652
Si 2.690727 2.791609 10.831733
Si 1.407002 1.312993 1.309188
Si 4.068929 4.070174 1.367519
Si 0.057166 2.603478 2.658914
Si 2.746846 0.088367 2.754334
Si 1.325824 4.017127 4.024888
Si 4.167005 1.354241 4.118358
Si 10.812859 10.742461 5.408665
Si 2.736405 2.623192 5.406518
Si 1.341114 1.341635 6.709355
Si 4.012877 4.076352 6.786111
Si 0.055723 2.693256 8.205073
Si 2.654665 10.830090 8.179198
Si 1.345842 4.118408 9.523425
Si 4.034376 1.313712 9.578469
Si 0.030423 5.533973 10.809466
Si 2.714246 8.171030 10.811152
Si 1.416458 6.882817 1.306585
Si 4.093051 9.530185 1.336593
Si 0.094091 8.301643 2.712373
Si 2.681687 5.404576 2.673798
Si 1.466598 9.551216 4.031547
Si 4.050171 6.848181 4.004625
Si 10.788340 5.353116 5.422420
Si 2.711971 8.095075 5.396416
Si 1.308075 6.685700 6.796881
Si 4.056109 9.469162 6.834551
Si 10.789681 8.032218 8.118860
Si 2.745674 5.474451 8.237611
Si 1.277364 9.484585 9.458920
Si 4.089815 6.825067 9.525780
Si 5.461924 0.011765 10.846015
Si 8.153373 2.803558 0.036704
Si 6.840338 1.364032 1.394352
Si 9.595596 4.170481 1.362434
Si 5.484791 2.727391 2.710042
Si 8.166147 10.837376 2.727406
Si 6.824657 4.093182 4.125185
Si 9.540277 1.361780 4.107588
Si 5.427671 10.823872 5.487235
Si 8.109762 2.714054 5.470557
Si 6.750712 1.379176 6.749388
Si 9.501046 4.064444 6.908611
Si 5.343684 2.589470 8.161784
Si 8.218923 0.097362 8.192087
Si 6.721567 3.991893 9.430110
Si 9.486895 1.459243 9.543469
Si 5.481619 5.394170 0.009823
Si 8.090427 8.083971 0.006468
Si 6.746176 6.833471 1.438374
Si 9.544142 9.478889 1.254821
Si 5.404004 8.243353 2.729008
Si 8.206462 5.465243 2.748807
Si 6.860769 9.543515 4.121418
Si 9.605477 6.838849 4.038499
Si 5.320165 5.443084 5.376524
Si 8.150393 8.133449 5.410874
Si 6.680396 6.748381 6.725672
Si 9.511474 9.488181 6.888263
Si 5.479871 8.168216 8.137917
Si 7.973058 5.406089 8.109979
Si 6.847144 9.510142 9.496307
Si 9.420205 6.642326 9.519298
64
Step 1600
Si 0.014225 10.850498 0.024141
Si 2.832942 2.775406 10.834368
Si 1.405667 1.411706 1.334589
Si 4.077067 4.179904 1.400181
Si 10.816484 2.620905 2.737847
Si 2.757281 10.858473 2.757222
Si 1.293928 3.955330 4.126466
Si 4.113658 1.384299 4.059774
Si 0.014181 10.857861 5.437276
Si 2.757208 2.617394 5.415383
Si 1.352067 1.383190 6.806015
Si 4.048733 4.147929 6.633290
Si 0.011654 2.808765 8.080501
Si 2.725571 10.855493 8.153447
Si 1.441669 4.095994 9.500692
Si 4.077378 1.346232 9.495802
Si 10.749210 5.429510 10.845035
Si 2.697562 8.098385 10.859178
Si 1.387677 6.721901 1.314824
Si 4.044184 9.483778 1.302516
Si 0.043149 8.137674 2.676758
Si 2.623659 5.393888 2.739543
Si 1.389768 9.484174 4.100862
Si 3.978949 6.754889 4.050175
Si 0.051579 5.430902 5.409291
Si 2.690415 8.087208 5.489854
Si 1.312291 6.785765 6.858317
Si 4.028367 9.484210 6.819883
Si 10.795985 8.146177 8.130648
Si 2.732920 5.431456 8.068800
Si 1.375010 9.484917 9.470616
Si 4.095522 6.774382 9.486964
Si 5.434821 10.836871 0.036277
Si 8.173491 2.777044 0.009151
Si 6.797547 1.407954 1.302195
Si 9.453276 4.033597 1.386855
Si 5.478042 2.774375 2.675846
Si 8.090576 10.839874 2.722433
Si 6.871267 4.073243 4.050759
Si 9.455766 1.297549 4.037191
Si 5.399496 10.818890 5.514283
Si 8.123628 2.582027 5.408754
Si 6.755299 1.416742 6.855262
Si 9.495364 4.037226 6.722258
Si 5.351800 2.778625 8.061690
Si 8.218898 0.053776 8.196016
Si 6.734822 4.075682 9.547004
Si 9.584224 1.411249 9.505825
Si 5.465544 5.489506 0.018259
Si 8.141503 8.172724 0.063996
Si 6.829231 6.750961 1.386620
Si 9.533123 9.517382 1.355920
Si 5.371518 8.118699 2.726258
Si 8.177469 5.485780 2.764336
Si 6.825290 9.480221 4.099453
Si 9.551464 6.805257 4.053995
Si 5.491610 5.503371 5.367235
Si 8.141285 8.109868 5.402265
Si 6.848687 6.793767 6.821754
Si 9.436739 9.487211 6.793268
Si 5.457673 8.198041 8.209503
Si 8.106451 5.373015 8.155171
Si 6.795959 9.557867 9.531201
Si 9.394174 6.833019 9.520711
64
Step 1650
Si 0.072389 0.019547 0.048480
Si 2.694402 2.689681 0.025134
Si 1.408351 1.367390 1.402456
Si 4.086914 4.047756 1.335894
Si 10.815063 2.715355 2.711414
Si 2.696466 10.790772 2.670732
Si 1.339842 4.049376 4.073368
Si 4.027248 1.323220 3.996352
Si 0.063585 0.055144 5.469719
Si 2.730030 2.733859 5.401242
Si 1.365985 1.347943 6.848422
Si 4.161931 4.038611 6.783742
Si 10.838310 2.784109 8.094291
Si 2.763870 0.025174 8.161659
Si 1.352225 4.051509 9.499557
Si 4.131575 1.485285 9.424961
Si 10.840442 5.324690 0.003554
Si 2.663236 8.084841 0.037965
Si 1.272059 6.673873 1.366015
Si 4.013427 9.452039 1.393491
Si 10.848673 8.062832 2.698234
Si 2.718242 5.448445 2.762664
Si 1.284506 9.502160 4.083175
Si 4.074184 6.764038 4.113866
Si 0.007422 5.433344 5.475226
Si 2.674697 8.229190 5.454161
Si 1.330259 6.891206 6.795892
Si 4.135499 9.517847 6.769304
Si 10.836222 8.266644 8.220638
Si 2.689504 5.364483 8.077280
Si 1.391320 9.525297 9.567841
Si 4.076434 6.775261 9.455739
Si 5.341044 0.010987 0.044605
Si 8.173699 2.669827 10.808642
Si 6.725774 1.357631 1.306790
Si 9.492986 3.960001 1.268402
Si 5.392581 2.697788 2.747970
Si 8.050112 10.794637 2.734405
Si 6.726211 4.072849 4.057088
Si 9.445851 1.287898 4.057257
Si 5.439719 0.006221 5.392985
Si 8.156055 2.678697 5.418126
Si 6.785861 1.330134 6.821480
Si 9.495311 4.043433 6.750473
Si 5.563481 2.800139 8.098595
Si 8.121488 10.832052 8.138116
Si 6.841027 4.158598 9.524390
Si 9.579849 1.316061 9.483065
Si 5.385465 5.498619 10.856515
Si 8.213884 8.237351 10.847360
Si 6.827575 6.816647 1.355570
Si 9.527810 9.562246 1.433686
Si 5.391843 8.107840 2.713341
Si 8.136894 5.399000 2.672928
Si 6.680658 9.435550 4.044825
Si 9.504781 6.781695 4.126578
Si 5.502510 5.423681 5.457365
Si 8.118026 8.210316 5.451295
Si 6.851591 6.822998 6.796577
Si 9.503046 9.574260 6.732084
Si 5.435639 8.140567 8.165158
Si 8.280886 5.473191 8.138423
Si 6.785136 9.557067 9.530432
Si 9.564894 6.823104 9.525006
64
Step 1700
Si 10.823972 10.856340 10.854507
Si 2.662552 2.694938 10.854117
Si 1.284683 1.350335 1.376504
Si 4.089803 4.040591 1.304450
Si 0.022574 2.788083 2.762217
Si 2.660790 10.788142 2.686432
Si 1.404813 4.166991 4.073282
Si 4.020125 1.349515 4.098409
Si 10.829521 0.070254 5.418175
Si 2.724802 2.848961 5.432446
Si 1.425964 1.308677 6.774094
Si 4.085188 4.027409 6.907667
Si 10.858845 2.561430 8.168841
Si 2.764946 0.078771 8.146320
Si 1.319431 4.058756 9.447490
Si 4.126303 1.378782 9.549995
Si 0.117123 5.372215 0.043471
Si 2.678884 8.101487 10.831687
Si 1.304630 6.777827 1.466932
Si 4.058549 9.454408 1.354944
Si 10.782569 8.115010 2.752854
Si 2.800434 5.395838 2.760003
Si 1.273256 9.450782 4.074075
Si 4.121919 6.783158 4.112048
Si 10.829550 5.501805 5.419881
Si 2.733182 8.196715 5.454156
Si 1.410664 6.780234 6.734578
Si 4.090289 9.535691 6.817422
Si 0.146900 8.196260 8.183416
Si 2.696656 5.489433 8.155320
Si 1.411335 9.558756 9.533617
Si 4.064267 6.771181 9.534682
Si 5.427082 0.005984 10.840622
Si 8.086844 2.650296 0.013205
Si 6.738885 1.305748 1.377085
Si 9.508382 4.028322 1.352444
Si 5.361093 2.657722 2.693484
Si 8.200469 0.043944 2.677365
Si 6.705563 4.095399 4.020467
Si 9.500207 1.432419 4.083485
Si 5.423774 0.023701 5.364356
Si 8.158319 2.881186 5.413364
Si 6.824509 1.317552 6.704607
Si 9.543447 4.098098 6.847989
Si 5.510822 2.683573 8.201350
Si 8.060077 10.823791 8.109123
Si 6.898856 4.129360 9.460358
Si 9.408938 1.292001 9.506774
Si 5.447373 5.410721 10.801614
Si 8.122408 8.125219 10.812768
Si 6.802081 6.808109 1.311500
Si 9.421630 9.465568 1.372982
Si 5.469002 8.072954 2.686123
Si 8.098870 5.399702 2.670365
Si 6.736197 9.522014 4.008227
Si 9.401010 6.713944 4.057611
Si 5.422408 5.375655 5.478222
Si 8.209233 8.157172 5.436521
Si 6.745760 6.827516 6.792537
Si 9.590846 9.540285 6.801131
Si 5.389916 8.100577 8.148087
Si 8.190869 5.551464 8.151535
Si 6.758459 9.471802 9.531061
Si 9.658151 6.861433 9.497602
64
Step 1750
Si 10.768996 10.840507 10.832435
Si 2.705563 2.673779 10.857963
Si 1.269011 1.318478 1.343710
Si 4.018100 4.101349 1.329736
Si 0.067106 2.747001 2.704310
Si 2.668580 0.052698 2.734437
Si 1.435805 4.113967 4.110968
Si 4.038319 1.319270 4.127047
Si 10.812847 10.825648 5.375697
Si 2.741441 2.669415 5.478670
Si 1.264680 1.379229 6.803309
Si 4.041184 4.131082 6.783832
Si 10.827324 2.680672 8.212584
Si 2.653269 0.031895 8.112032
Si 1.323835 4.022645 9.580494
Si 4.099245 1.240042 9.597186
Si 0.052847 5.499689 0.028040
Si 2.768555 8.237515 0.046466
Si 1.417420 6.865173 1.364499
Si 4.101700 9.522875 1.439171
Si 10.836367 8.172677 2.719056
Si 2.730349 5.429839 2.685386
Si 1.416101 9.521370 4.054631
Si 4.103794 6.827114 4.032521
Si 10.846511 5.456360 5.421365
Si 2.771234 8.131312 5.367476
Si 1.435809 6.762385 6.800866
Si 4.058684 9.547350 6.744155
Si 0.035893 8.121369 8.084421
Si 2.719845 5.405839 8.230492
Si 1.366031 9.501819 9.489986
Si 4.020233 6.796193 9.600566
Si 5.473213 10.778161 0.020416
Si 8.167997 2.768885 0.039491
Si 6.847380 1.347269 1.417186
Si 9.542869 4.173555 1.395248
Si 5.378942 2.724868 2.700160
Si 8.239301 0.084413 2.737856
Si 6.776581 4.017406 4.116589
Si 9.528048 1.498250 4.095603
Si 5.459038 0.057677 5.389596
Si 8.131354 2.780964 5.450186
Si 6.799344 1.360725 6.707160
Si 9.512971 4.128690 6.792546
Si 5.366130 2.683928 8.157375
Si 8.143589 0.021539 8.070002
Si 6.823034 3.955929 9.420751
Si 9.410548 1.335099 9.490663
Si 5.494446 5.295521 10.806680
Si 8.156882 8.025398 10.818465
Si 6.732489 6.739611 1.330842
Si 9.445473 9.469315 1.329929
Si 5.510577 8.225742 2.761541
Si 8.120958 5.381109 2.727551
Si 6.878486 9.554698 4.128775
Si 9.402647 6.821326 4.042152
Si 5.384356 5.472048 5.444264
Si 8.155182 8.122048 5.427419
Si 6.813838 6.769356 6.794051
Si 9.466314 9.431370 6.784761
Si 5.389963 8.124652 8.091762
Si 8.148237 5.417970 8.144211
Si 6.793254 9.424644 9.432419
Si 9.535882 6.783284 9.424837
64
Step 1800
Si 10.860452 10.772814 10.837462
Si 2.768489 2.635426 10.856346
Si 1.353892 1.351727 1.305316
Si 4.068819 4.046269 1.398689
Si 0.006295 2.742258 2.680465
Si 2.741761 0.069899 2.743581
Si 1.334440 4.045205 4.072618
Si 4.071879 1.441064 4.086127
Si 0.050232 10.851393 5.467179
Si 2.631936 2.630711 5.488144
Si 1.278097 1.398651 6.856037
Si 4.061864 4.054908 6.766270
Si 10.860395 2.842448 8.144359
Si 2.655817 10.778730 8.126860
Si 1.396402 4.086100 9.580574
Si 4.068228 1.216542 9.456039
Si 10.817783 5.509200 0.004927
Si 2.812951 8.225401 0.014047
Si 1.422856 6.886771 1.292771
Si 4.194744 9.630204 1.381654
Si 0.035820 8.212203 2.676968
Si 2.667012 5.470765 2.656752
Si 1.351863 9.551980 4.097197
Si 4.042063 6.847858 4.035944
Si 0.121605 5.392784 5.457211
Si 2.710515 8.094864 5.394283
Si 1.352560 6.781639 6.817325
Si 4.042425 9.461481 6.809757
Si 10.772124 8.090903 8.086834
Si 2.723975 5.362821 8.171512
Si 1.302516 9.458210 9.463953
Si 4.048978 6.833756 9.459304
Si 5.515990 10.860662 10.826404
Si 8.227639 2.753937 0.020798
Si 6.857637 1.455671 1.360130
Si 9.465002 4.172230 1.374816
Si 5.517638 2.766451 2.681027
Si 8.147148 0.040030 2.682103
Si 6.805431 4.033070 4.109298
Si 9.585484 1.313103 4.062999
Si 5.402162 10.843129 5.482041
Si 8.111665 2.625462 5.444339
Si 6.766722 1.387335 6.859118
Si 9.547041 4.106732 6.668800
Si 5.306008 2.689902 8.159399
Si 8.144470 10.832591 8.170719
Si 6.616198 3.995177 9.591207
Si 9.549543 1.377172 9.504092
Si 5.390756 5.461596 0.063313
Si 8.127667 8.148153 0.007039
Si 6.774190 6.721713 1.365573
Si 9.497730 9.488580 1.296566
Si 5.517639 8.184852 2.719180
Si 8.166987 5.444638 2.743622
Si 6.890114 9.542661 4.086399
Si 9.633934 6.830838 4.073654
Si 5.381783 5.450201 5.421838
Si 8.114204 8.096396 5.421987
Si 6.721976 6.725520 6.813383
Si 9.483794 9.501794 6.781493
Si 5.439659 8.222362 8.150410
Si 8.076517 5.283190 8.138704
Si 6.790408 9.452590 9.457112
Si 9.382077 6.725280 9.497930
64
Step 1850
Si 0.105398 0.049043 10.833540
Si 2.708507 2.758756 0.000252
Si 1.452506 1.329937 1.391915
Si 4.071608 4.056742 1.393854
Si 10.831664 2.655869 2.697080
Si 2.838738 10.860958 2.702352
Si 1.274724 4.021928 3.994329
Si 4.155005 1.371810 4.091178
Si 10.844040 10.857390 5.481395
Si 2.684067 2.747301 5.354375
Si 1.415073 1.369795 6.759056
Si 4.082438 4.016791 6.793185
Si 0.011292 2.757899 8.166909
Si 2.742557 10.762658 8.166939
Si 1.387224 4.151785 9.476624
Si 4.002758 1.439040 9.461745
Si 10.818820 5.448877 10.808882
Si 2.712779 8.188754 10.849232
Si 1.346276 6.775852 1.326649
Si 4.098301 9.541092 1.315422
Si 0.072184 8.126183 2.726483
Si 2.709314 5.463849 2.711312
Si 1.350104 9.555958 4.049653
Si 4.037031 6.759583 4.077372
Si 10.848713 5.337384 5.432538
Si 2.677784 8.106662 5.420094
Si 1.288165 6.783710 6.805701
Si 4.106032 9.471166 6.722773
Si 10.753507 8.080552 8.234240
Si 2.727823 5.492183 8.124784
Si 1.296224 9.427824 9.496987
Si 4.093795 6.807943 9.492946
Si 5.412429 0.092638 10.861174
Si 8.094062 2.745551 10.789832
Si 6.812712 1.418879 1.374371
Si 9.487248 4.044926 1.363264
Si 5.502780 2.727125 2.747760
Si 8.088161 10.755984 2.745788
Si 6.838041 4.123942 4.066268
Si 9.485061 1.278506 4.036633
Si 5.426300 10.824570 5.439464
Si 8.140420 2.639032 5.419370
Si 6.782251 1.307301 6.820046
Si 9.477068 4.023036 6.834805
Si 5.493596 2.693768 8.119740
Si 8.218712 0.055663 8.192145
Si 6.722915 4.182808 9.534257
Si 9.570067 1.429006 9.537252
Si 5.385263 5.520805 0.084732
Si 8.130620 8.143047 0.037190
Si 6.790217 6.801455 1.423562
Si 9.578519 9.533675 1.356235
Si 5.373906 8.151269 2.719386
Si 8.237613 5.478538 2.763213
Si 6.732463 9.459668 4.080092
Si 9.597252 6.846354 4.110679
Si 5.407188 5.390467 5.381474
Si 8.119118 8.165443 5.452576
Si 6.765477 6.758864 6.695455
Si 9.504450 9.506067 6.808427
Si 5.475024 8.128094 8.152462
Si 8.028269 5.432342 8.076643
Si 6.805344 9.565012 9.542685
Si 9.419005 6.646894 9.519221
64
Step 1900
Si 0.006157 0.038434 0.047349
Si 2.707927 2.829159 10.847631
Si 1.405240 1.402475 1.389962
Si 4.098123 4.166780 1.351757
Si 10.819867 2.628554 2.735637
Si 2.720813 10.810567 2.743123
Si 1.292992 4.041114 4.103563
Si 4.107525 1.353421 4.067654
Si 10.859900 0.005614 5.397308
Si 2.772997 2.751179 5.412465
Si 1.468061 1.290678 6.694077
Si 4.034489 4.116462 6.757158
Si 0.066375 2.602969 8.115029
Si 2.777871 0.089972 8.121523
Si 1.357968 4.068359 9.404994
Si 4.077278 1.441135 9.525517
Si 10.811824 5.374413 10.839166
Si 2.621487 8.079165 10.820282
Si 1.280782 6.673577 1.403807
Si 4.011618 9.458298 1.280312
Si 10.818463 8.146529 2.751372
Si 2.703119 5.340937 2.740689
Si 1.393190 9.475111 4.089739
Si 3.985723 6.724621 4.108030
Si 10.729454 5.457993 5.434402
Si 2.655858 8.177869 5.496139
Si 1.320057 6.747713 6.746816
Si 4.029081 9.495316 6.817243
Si 0.067512 8.159286 8.158358
Si 2.748859 5.522588 8.086855
Si 1.436894 9.595935 9.460926
Si 4.125359 6.797378 9.527722
Si 5.402715 0.044892 10.830053
Si 8.058653 2.725167 0.019050
Si 6.747501 1.269871 1.328538
Si 9.520529 3.982064 1.375909
Si 5.401508 2.690016 2.707650
Si 8.180927 10.785038 2.683888
Si 6.849518 4.107656 4.025323
Si 9.398209 1.322103 4.101648
Si 5.446259 10.835288 5.466298
Si 8.208188 2.761593 5.422749
Si 6.836143 1.336081 6.783125
Si 9.480686 3.988493 6.899662
Si 5.452272 2.714075 8.093123
Si 8.173779 0.013712 8.239557
Si 6.870574 4.102774 9.425144
Si 9.516454 1.379619 9.536390
Si 5.478117 5.452102 10.817799
Si 8.137855 8.215773 0.029125
Si 6.839287 6.850052 1.373732
Si 9.513890 9.497169 1.376830
Si 5.286807 8.057927 2.699077
Si 8.171024 5.438222 2.682334
Si 6.731159 9.477493 4.034080
Si 9.420630 6.774500 4.054215
Si 5.491385 5.357791 5.391051
Si 8.218566 8.197364 5.446898
Si 6.777639 6.865837 6.771077
Si 9.515886 9.536713 6.840475
Si 5.466866 8.164685 8.185838
Si 8.159187 5.510549 8.135679
Si 6.816979 9.567031 9.606629
Si 9.563946 6.836754 9.586444
64
Step 1950
Si 0.030031 10.839189 0.033240
Si 2.747858 2.712330 0.021774
Si 1.345954 1.408086 1.319986
Si 4.086867 4.135165 1.328200
Si 0.018731 2.736716 2.758357
Si 2.605318 0.025965 2.701506
Si 1.402701 4.107798 4.178886
Si 4.063747 1.295269 4.012758
Si 0.018161 10.801724 5.384541
Si 2.782498 2.669651 5.450587
Si 1.311479 1.348842 6.837522
Si 4.118717 4.162950 6.741423
Si 10.813922 2.716147 8.122192
Si 2.718533 0.096396 8.145979
Si 1.330786 4.004367 9.531176
Si 4.177797 1.400307 9.526081
Si 0.015561 5.399243 10.847753
Si 2.681440 8.082024 0.051190
Si 1.348622 6.758743 1.359046
Si 3.983773 9.393051 1.452617
Si 10.833409 8.075642 2.675488
Si 2.653830 5.371219 2.731942
Si 1.389911 9.426426 4.068508
Si 4.108851 6.759222 4.027823
Si 0.008142 5.541219 5.377294
Si 2.757274 8.184768 5.454477
Si 1.365968 6.807702 6.804046
Si 4.120171 9.522602 6.825654
Si 0.098728 8.291785 8.087311
Si 2.711154 5.355754 8.163091
Si 1.444122 9.531072 9.557056
Si 4.027003 6.813411 9.513856
Si 5.380248 10.811760 0.092414
Si 8.182965 2.641313 0.036457
Si 6.715597 1.288851 1.346444
Si 9.506638 4.055235 1.323491
Si 5.334052 2.723655 2.681716
Si 8.094458 0.018299 2.713959
Si 6.702046 4.042612 4.105147
Si 9.508158 1.391765 4.116884
Si 5.462130 0.011145 5.400463
Si 8.134692 2.762496 5.486707
Si 6.777976 1.375170 6.809599
Si 9.484741 4.137401 6.747582
Si 5.448518 2.810199 8.141306
Si 8.104621 10.858692 8.099482
Si 6.887786 4.026398 9.460069
Si 9.509143 1.310342 9.518732
Si 5.464579 5.369851 10.722480
Si 8.193700 8.121414 10.827733
Si 6.724984 6.819318 1.319465
Si 9.503246 9.539221 1.387342
Si 5.456470 8.132206 2.719152
Si 8.034050 5.361649 2.619591
Si 6.723167 9.471820 4.050467
Si 9.344216 6.731129 4.097411
Si 5.502508 5.518083 5.439223
Si 8.085026 8.207931 5.429686
Si 6.850589 6.833492 6.908540
Si 9.501659 9.531615 6.775971
Si 5.436607 8.102474 8.085637
Si 8.271160 5.428572 8.198841
Si 6.751192 9.488021 9.488061
Si 9.662017 6.887088 9.480584
64
Step 2000
Si 10.823078 10.812554 10.831671
Si 2.730065 2.606288 10.840812
Si 1.265480 1.353269 1.395076
Si 4.068334 4.001226 1.299151
Si 0.006004 2.835461 2.746720
Si 2.654035 10.816002 2.721540
Si 1.401595 4.132744 4.081145
Si 3.967515 1.394008 4.090196
Si 10.860107 0.062351 5.432305
Si 2.645540 2.723073 5.493150
Si 1.318491 1.383982 6.869642
Si 4.086983 4.032275 6.833822
Si 10.809692 2.730519 8.131609
Si 2.699270 0.016003 8.135298
Si 1.358450 4.050466 9.530556
Si 4.102572 1.274159 9.501908
Si 0.022939 5.426737 0.030665
Si 2.791615 8.143042 0.046152
Si 1.343420 6.862966 1.424172
Si 4.108550 9.560714 1.414146
Si 10.804526 8.146081 2.677505
Si 2.760408 5.476122 2.756064
Si 1.262266 9.431252 4.076515
Si 4.164327 6.799542 4.098338
Si 0.079803 5.498417 5.368664
Si 2.785112 8.162388 5.362859
Si 1.464674 6.857331 6.764391
Si 4.095880 9.532749 6.777098
Si 0.016594 8.155377 8.142968
Si 2.625839 5.377854 8.158982
Si 1.344105 9.500373 9.537096
Si 4.025689 6.692108 9.452878
Si 5.504974 10.848544 0.045780
Si 8.218069 2.644193 0.011883
Si 6.774217 1.363526 1.380632
Si 9.458308 4.132061 1.410056
Si 5.426619 2.728949 2.726612
Si 8.186510 0.096567 2.773910
Si 6.726269 4.055043 4.061360
Si 9.577724 1.420999 4.058810
Si 5.368284 0.062577 5.419283
Si 8.114008 2.734501 5.379364
Si 6.765261 1.399790 6.762833
Si 9.538633 4.136568 6.708784
Si 5.449845 2.726305 8.179268
Si 8.084341 10.815596 8.117485
Si 6.785420 4.060505 9.573606
Si 9.475368 1.276936 9.438195
Si 5.422432 5.397011 10.844864
Si 8.170573 8.129776 10.818424
Si 6.819928 6.730775 1.270628
Si 9.421970 9.476120 1.358435
Si 5.554039 8.133813 2.675894
Si 8.083405 5.392914 2.725036
Si 6.843381 9.539229 4.085385
Si 9.513350 6.752484 4.036557
Si 5.417488 5.472746 5.483708
Si 8.150620 8.084188 5.368041
Si 6.773252 6.776335 6.857312
Si 9.520556 9.520925 6.734539
Si 5.427526 8.144764 8.116408
Si 8.227633 5.413345 8.173597
Si 6.764140 9.435004 9.501667
Si 9.526896 6.834483 9.462542
64
Step 2050
Si 10.838999 0.000855 10.796646
Si 2.635436 2.664752 0.002147
Si 1.334861 1.256892 1.367356
Si 4.002859 3.978233 1.332287
Si 0.058550 2.729979 2.651292
Si 2.801369 10.858232 2.688243
Si 1.399984 4.172279 3.971373
Si 3.988492 1.391323 4.114358
Si 10.813489 0.024315 5.500656
Si 2.652188 2.793275 5.428202
Si 1.378515 1.334952 6.799041
Si 4.016652 3.981177 6.889642
Si 10.852057 2.718037 8.206544
Si 2.702943 10.731414 8.171766
Si 1.344651 4.097971 9.518727
Si 4.022243 1.275994 9.517067
Si 0.044206 5.480950 0.057359
Si 2.779370 8.204849 10.838881
Si 1.424573 6.819252 1.346187
Si 4.149689 9.582348 1.290722
Si 0.050934 8.199439 2.684803
Si 2.850870 5.548361 2.675965
Si 1.339819 9.652214 4.071533
Si 4.126642 6.833456 4.094973
Si 10.824833 5.371781 5.498825
Si 2.742366 8.146718 5.346550
Si 1.366736 6.801829 6.757400
Si 4.049350 9.502553 6.726847
Si 10.806882 8.018876 8.168155
Si 2.673407 5.492705 8.197964
Si 1.319135 9.427575 9.516887
Si 4.075030 6.751480 9.583982
Si 5.516879 0.030612 10.845884
Si 8.132649 2.792069 10.814795
Si 6.872857 1.451923 1.391812
Si 9.532906 4.099985 1.327255
Si 5.414129 2.700063 2.760284
Si 8.192759 0.000009 2.796249
Si 6.780522 4.083444 4.062478
Si 9.486123 1.411305 4.068141
Si 5.422106 0.026773 5.396548
Si 8.175745 2.759585 5.443728
Si 6.785524 1.337334 6.720602
Si 9.531371 4.067931 6.867129
Si 5.441143 2.576753 8.181814
Si 8.140262 10.822231 8.076333
Si 6.729240 4.067725 9.519773
Si 9.441004 1.367939 9.472776
Si 5.425680 5.397026 0.086978
Si 8.114873 8.093748 10.835801
Si 6.794519 6.752814 1.379016
Si 9.459329 9.541703 1.313243
Si 5.462578 8.253044 2.737524
Si 8.230671 5.442873 2.786167
Si 6.866435 9.535222 4.127648
Si 9.596623 6.863121 4.065957
Si 5.338979 5.364684 5.467543
Si 8.181913 8.134754 5.458449
Si 6.740559 6.761126 6.712672
Si 9.480982 9.417108 6.812227
Si 5.402600 8.099407 8.132397
Si 8.068776 5.454819 8.090252
Si 6.794053 9.507550 9.456423
Si 9.425079 6.663262 9.425720
64
Step 2100
Si 10.819430 10.826136 10.851242
Si 2.761712 2.754114 10.838024
Si 1.384823 1.369463 1.273291
Si 4.089156 4.119869 1.404283
Si 0.032786 2.683998 2.717823
Si 2.743049 0.065507 2.699809
Si 1.309881 4.047200 4.144201
Si 4.174300 1.415119 4.079147
Si 0.025805 10.829628 5.432186
Si 2.675404 2.693683 5.425523
Si 1.357721 1.337853 6.720823
Si 4.006443 4.109931 6.727657
Si 0.043175 2.710019 8.174946
Si 2.699205 10.801670 8.141812
Si 1.344562 4.095757 9.500340
Si 4.054339 1.333821 9.496032
Si 0.015954 5.471883 0.033507
Si 2.714055 8.178420 10.852148
Si 1.376703 6.799567 1.320647
Si 4.153583 9.478889 1.362506
Si 0.053048 8.257754 2.728193
Si 2.642703 5.362329 2.701633
Si 1.428527 9.597384 4.058803
Si 3.979022 6.821155 4.035693
Si 10.825187 5.397194 5.472118
Si 2.632887 8.111146 5.490550
Si 1.316089 6.700816 6.790897
Si 4.048359 9.436852 6.808110
Si 10.808400 8.059433 8.155020
Si 2.817904 5.475725 8.182068
Si 1.342981 9.451882 9.419568
Si 4.179204 6.856891 9.542581
Si 5.453558 0.019207 10.787293
Si 8.103292 2.801014 0.031105
Si 6.836180 1.424058 1.366382
Si 9.543257 4.041293 1.370620
Si 5.474611 2.751976 2.692832
Si 8.203410 10.841914 2.650762
Si 6.852038 4.133150 4.086218
Si 9.505464 1.331604 4.090333
Si 5.429731 10.782873 5.432576
Si 8.140727 2.723025 5.445638
Si 6.798166 1.350444 6.802299
Si 9.520722 4.051161 6.767595
Si 5.317052 2.733545 8.071659
Si 8.149419 0.024936 8.175404
Si 6.721358 3.986665 9.449842
Si 9.483704 1.394297 9.562617
Si 5.484348 5.475075 0.055946
Si 8.065858 8.171058 0.077178
Si 6.823402 6.823131 1.465466
Si 9.529681 9.473124 1.322777
Si 5.445024 8.120037 2.766781
Si 8.199593 5.504437 2.738856
Si 6.800719 9.513944 4.032921
Si 9.581111 6.835830 4.017009
Si 5.396981 5.359014 5.372815
Si 8.151993 8.117128 5.479335
Si 6.736056 6.760552 6.731040
Si 9.519195 9.476910 6.800523
Si 5.406445 8.163883 8.164289
Si 8.046826 5.436708 8.147866
Si 6.771659 9.478419 9.501619
Si 9.374020 6.694511 9.545217
64
Step 2150
Si 0.090755 0.039641 0.016501
Si 2.815569 2.792861 10.836933
Si 1.429378 1.438836 1.318943
Si 4.135323 4.217855 1.395983
Si 10.811483 2.582085 2.734713
Si 2.733377 0.058392 2.697198
Si 1.260595 3.959508 4.097001
Si 4.207566 1.293468 4.018037
Si 0.018454 10.801682 5.405799
Si 2.761771 2.578782 5.406347
Si 1.299282 1.381972 6.796400
Si 4.077333 4.174675 6.708374
Si 10.844852 2.765393 8.130634
Si 2.688127 0.045923 8.160056
Si 1.382033 4.051017 9.511434
Si 4.092977 1.415900 9.457674
Si 10.808423 5.384450 10.802540
Si 2.696834 8.157440 0.067151
Si 1.327433 6.740056 1.303956
Si 4.038028 9.507919 1.402788
Si 0.029975 8.169002 2.763511
Si 2.564855 5.331264 2.730592
Si 1.458838 9.471195 4.026500
Si 3.943647 6.747466 4.049949
Si 10.837029 5.454861 5.445901
Si 2.660767 8.099721 5.482610
Si 1.294910 6.790651 6.909645
Si 4.085352 9.510790 6.782999
Si 10.789109 8.226267 8.168446
Si 2.729980 5.383789 8.138122
Si 1.359443 9.471252 9.452576
Si 4.085070 6.855274 9.463716
Si 5.307815 10.840218 0.002197
Si 8.164283 2.662935 0.007688
Si 6.754493 1.308312 1.341314
Si 9.543455 4.043005 1.383396
Si 5.501195 2.750990 2.647227
Si 8.095654 0.010791 2.666528
Si 6.822528 4.091417 4.121378
Si 9.518092 1.297284 4.092000
Si 5.467311 10.814703 5.450525
Si 8.121151 2.621485 5.431941
Si 6.761008 1.352661 6.832203
Si 9.450433 4.024428 6.746263
Si 5.440152 2.792812 8.081011
Si 8.190528 0.050080 8.190794
Si 6.816214 4.066335 9.480342
Si 9.588766 1.382605 9.512331
Si 5.442790 5.448797 10.803204
Si 8.170108 8.174472 10.860005
Si 6.773079 6.812992 1.412608
Si 9.589939 9.495883 1.382834
Si 5.311860 8.115570 2.756535
Si 8.162852 5.453460 2.706526
Si 6.763002 9.482539 4.047175
Si 9.487268 6.823725 4.108758
Si 5.509595 5.500203 5.391953
Si 8.085105 8.144636 5.417983
Si 6.895558 6.758928 6.779076
Si 9.435840 9.551128 6.779081
Si 5.468478 8.162029 8.166637
Si 8.139245 5.427517 8.247181
Si 6.819427 9.588806 9.538030
Si 9.490205 6.771875 9.516243
64
Step 2200
Si 0.078357 0.019935 0.040987
Si 2.737572 2.715754 0.007207
Si 1.418170 1.367430 1.420815
Si 4.108944 4.115736 1.313664
Si 10.823024 2.707466 2.751964
Si 2.719489 10.815469 2.785305
Si 1.370567 4.085186 4.083245
Si 3.982300 1.429642 4.112086
Si 10.860161 0.018745 5.463975
Si 2.715195 2.767540 5.417355
Si 1.441747 1.369884 6.809342
Si 4.109790 4.015017 6.838200
Si 10.857536 2.714774 8.062367
Si 2.747541 0.041305 8.103675
Si 1.410334 4.096670 9.463287
Si 4.090897 1.411090 9.439035
Si 10.827029 5.358383 10.861679
Si 2.656957 8.035745 10.817909
Si 1.338063 6.685153 1.395817
Si 3.997920 9.498755 1.297088
Si 10.802125 8.055457 2.709645
Si 2.757841 5.466317 2.767866
Si 1.276293 9.386334 4.123910
Si 4.097217 6.733419 4.142499
Si 10.855069 5.401404 5.411480
Si 2.767090 8.189209 5.416646
Si 1.341278 6.845837 6.746589
Si 4.081561 9.517323 6.820247
Si 0.051469 8.254110 8.173654
Si 2.678097 5.439817 8.036800
Si 1.405535 9.572155 9.554030
Si 4.034001 6.770571 9.428288
Si 5.428081 0.001870 10.836665
Si 8.209234 2.653636 10.852573
Si 6.775178 1.295795 1.367096
Si 9.418433 4.060543 1.394359
Si 5.398835 2.689072 2.719238
Si 8.043328 10.812728 2.682730
Si 6.737681 4.073912 4.033732
Si 9.462333 1.292603 4.035409
Si 5.399050 0.043967 5.425909
Si 8.144995 2.734248 5.373075
Si 6.781075 1.333638 6.766390
Si 9.518878 4.057330 6.757849
Si 5.517215 2.753262 8.207765
Si 8.120868 0.010337 8.178246
Si 6.867497 4.198332 9.582423
Si 9.574580 1.340573 9.517256
Si 5.427948 5.474823 10.824660
Si 8.210039 8.181320 0.019045
Si 6.790185 6.809988 1.265018
Si 9.541618 9.536919 1.367498
Si 5.367773 8.094272 2.648841
Si 8.082906 5.405227 2.666426
Si 6.729199 9.450974 4.038591
Si 9.485411 6.708586 4.111770
Si 5.447212 5.427007 5.518336
Si 8.133719 8.166608 5.386106
Si 6.820236 6.817809 6.843666
Si 9.481141 9.548501 6.796966
Si 5.417265 8.171867 8.192379
Si 8.193175 5.433984 8.189831
Si 6.793806 9.481643 9.515757
Si 9.549938 6.897006 9.513737
64
Step 2250
Si 10.825476 10.850961 0.026961
Si 2.623630 2.694634 0.003327
Si 1.324653 1.329115 1.435673
Si 4.009441 3.946015 1.314192
Si 0.051898 2.781157 2.728444
Si 2.659521 10.796389 2.688690
Si 1.419011 4.161962 4.036741
Si 3.953998 1.357203 4.082250
Si 10.811913 0.029356 5.388457
Si 2.719483 2.827617 5.461966
Si 1.340782 1.294421 6.785230
Si 4.139619 4.011768 6.876776
Si 10.847181 2.697537 8.181812
Si 2.778860 0.031183 8.132746
Si 1.321564 4.085481 9.537119
Si 4.120936 1.358623 9.627352
Si 0.059143 5.429250 0.024154
Si 2.695738 8.152056 0.007322
Si 1.356011 6.804068 1.376087
Si 4.057575 9.445836 1.345912
Si 10.859004 8.069125 2.706831
Si 2.869540 5.511737 2.690218
Si 1.264263 9.526661 4.101400
Si 4.223014 6.784507 4.113771
Si 10.837557 5.444686 5.426100
Si 2.702192 8.187465 5.371920
Si 1.370916 6.812048 6.680124
Si 4.098560 9.522121 6.771728
Si 0.054411 8.121051 8.088025
Si 2.669436 5.449654 8.150236
Si 1.359187 9.521179 9.559568
Si 4.022992 6.741304 9.515079
Si 5.482669 10.850889 0.062235
Si 8.180303 2.750373 0.032725
Si 6.785786 1.349989 1.363080
Si 9.498815 4.095136 1.379472
Si 5.325509 2.698526 2.741689
Si 8.129762 10.858457 2.754791
Si 6.706952 3.987811 4.032323
Si 9.460229 1.395569 4.068318
Si 5.441865 0.052278 5.390962
Si 8.126571 2.778806 5.413336
Si 6.825072 1.406453 6.739581
Si 9.541797 4.073157 6.821904
Si 5.474707 2.645043 8.171558
Si 8.153894 10.858515 8.081852
Si 6.905497 4.117792 9.473357
Si 9.453784 1.331830 9.476042
Si 5.431718 5.375516 10.853403
Si 8.177989 8.119590 10.805657
Si 6.760995 6.851586 1.306489
Si 9.477794 9.496907 1.387437
Si 5.477012 8.208366 2.677624
Si 8.073500 5.353005 2.696940
Si 6.766000 9.505507 4.112512
Si 9.407025 6.765855 4.045202
Si 5.438882 5.414456 5.490277
Si 8.170002 8.165452 5.467478
Si 6.771934 6.820400 6.834331
Si 9.546948 9.452844 6.773591
Si 5.403867 8.126612 8.110231
Si 8.188732 5.476284 8.082939
Si 6.770920 9.476573 9.489927
Si 9.641964 6.810260 9.486520
64
Step 2300
Si 10.729146 10.781570 10.785440
Si 2.731997 2.677415 0.013970
Si 1.166143 1.324246 1.262158
Si 4.037906 4.060825 1.362283
Si 0.077044 2.824318 2.739154
Si 2.664613 0.059204 2.644448
Si 1.422597 4.070507 4.114710
Si 4.084791 1.268616 4.076664
Si 0.045728 0.058863 5.404671
Si 2.710792 2.661123 5.469650
Si 1.293874 1.330179 6.840293
Si 4.022329 4.058027 6.778589
Si 10.845852 2.641912 8.199776
Si 2.658445 0.000734 8.151683
Si 1.306758 4.030413 9.501748
Si 4.068355 1.231830 9.516216
Si 0.043517 5.504752 0.019905
Si 2.772424 8.265204 10.808554
Si 1.411077 6.962813 1.380969
Si 4.173566 9.534002 1.432781
Si 10.835124 8.201640 2.700901
Si 2.680753 5.409276 2.726688
Si 1.405076 9.586726 4.030386
Si 4.107887 6.817731 4.022911
Si 0.034235 5.499739 5.356584
Si 2.720384 8.134477 5.448330
Si 1.428095 6.730465 6.813954
Si 4.002342 9.542251 6.777881
Si 0.042457 8.054233 8.088966
Si 2.773563 5.436660 8.255335
Si 1.348902 9.544154 9.475386
Si 4.113286 6.749473 9.616114
Si 5.501120 10.846462 0.030244
Si 8.114816 2.762136 0.008569
Si 6.817129 1.406232 1.322761
Si 9.541295 4.108568 1.361340
Si 5.347723 2.721265 2.693368
Si 8.285082 0.079295 2.722735
Si 6.748483 4.047240 4.067816
Si 9.550588 1.500823 4.090284
Si 5.405078 10.839545 5.463032
Si 8.166944 2.756922 5.491321
Si 6.772572 1.377583 6.844738
Si 9.564579 4.115975 6.822482
Si 5.336552 2.679638 8.127597
Si 8.142773 10.804485 8.116036
Si 6.785598 3.972804 9.467023
Si 9.413273 1.328323 9.531803
Si 5.461915 5.362741 10.814055
Si 8.096465 8.092680 10.812623
Si 6.762466 6.726948 1.335318
Si 9.405713 9.421873 1.326950
Si 5.567153 8.151723 2.776482
Si 8.129761 5.440733 2.755107
Si 6.904133 9.646851 4.122649
Si 9.465216 6.796867 4.015446
Si 5.369203 5.427371 5.392568
Si 8.151429 8.108062 5.458249
Si 6.729991 6.777943 6.826734
Si 9.536432 9.473492 6.794562
Si 5.416945 8.132520 8.096231
Si 8.139007 5.363138 8.125153
Si 6.794268 9.493235 9.450254
Si 9.539243 6.767158 9.503366
64
Step 2350
Si 10.858742 10.833843 10.848119
Si 2.726948 2.721175 10.833530
Si 1.408784 1.339966 1.252408
Si 4.039781 4.110108 1.394639
Si 10.844210 2.676759 2.632417
Si 2.774193 0.034919 2.714160
Si 1.362629 4.063402 4.042927
Si 4.175392 1.356161 4.049306
Si 0.022050 10.848211 5.418119
Si 2.726450 2.622299 5.382606
Si 1.289038 1.429338 6.804245
Si 4.028391 4.088020 6.746006
Si 10.859306 2.819378 8.200766
Si 2.632976 10.799921 8.164864
Si 1.374395 4.075060 9.530284
Si 4.000943 1.345712 9.482680
Si 10.858165 5.512373 0.001277
Si 2.784969 8.193838 0.068054
Si 1.388436 6.835314 1.331138
Si 4.135289 9.595623 1.408781
Si 0.037931 8.223904 2.688071
Si 2.637939 5.475768 2.711952
Si 1.444612 9.520855 4.019835
Si 4.028574 6.850277 4.036267
Si 0.047038 5.417369 5.486715
Si 2.717843 8.110183 5.399091
Si 1.409652 6.775171 6.870368
Si 4.048208 9.427452 6.774061
Si 10.776339 8.100825 8.162677
Si 2.749104 5.378856 8.182073
Si 1.353209 9.428721 9.481472
Si 4.076548 6.819167 9.552176
Si 5.468270 0.025098 10.841092
Si 8.112519 2.708283 0.016325
Si 6.829586 1.410811 1.377552
Si 9.566922 4.162856 1.311665
Si 5.488712 2.760441 2.713553
Si 8.192383 0.066559 2.748038
Si 6.824008 4.103948 4.162860
Si 9.553238 1.384868 4.110400
Si 5.454248 10.804176 5.431328
Si 8.138723 2.735649 5.472296
Si 6.767558 1.326272 6.784775
Si 9.412650 4.129440 6.763253
Si 5.356929 2.680862 8.151321
Si 8.106292 10.800727 8.082613
Si 6.674678 4.018783 9.515305
Si 9.437919 1.363152 9.474885
Si 5.368383 5.459625 0.022914
Si 8.076092 8.043002 10.846955
Si 6.815813 6.713720 1.479967
Si 9.445342 9.522481 1.308064
Si 5.441265 8.166740 2.791642
Si 8.223842 5.462025 2.802196
Si 6.895578 9.498580 4.060487
Si 9.598265 6.825825 4.101915
Si 5.379086 5.438015 5.372094
Si 8.131259 8.141866 5.439890
Si 6.755910 6.746895 6.752720
Si 9.515986 9.499082 6.779041
Si 5.492347 8.090902 8.080439
Si 8.124118 5.342222 8.131783
Si 6.749583 9.467416 9.484353
Si 9.430411 6.715720 9.501189
64
Step 2400
Si 0.066116 0.092256 10.830753
Si 2.704147 2.733013 10.846328
Si 1.475266 1.379925 1.410297
Si 4.093282 4.111087 1.400592
Si 10.841381 2.609446 2.659988
Si 2.811000 10.860627 2.756902
Si 1.281907 4.024503 4.046675
Si 4.097595 1.480287 4.105469
Si 0.006676 10.853658 5.472750
Si 2.642892 2.729031 5.379948
Si 1.431085 1.408066 6.749488
Si 4.100867 4.027251 6.786282
Si 0.040536 2.688024 8.164878
Si 2.695635 10.798378 8.122170
Si 1.374622 4.103679 9.463517
Si 4.052417 1.379452 9.437443
Si 10.742322 5.387197 0.031400
Si 2.702675 8.129101 0.011183
Si 1.300421 6.700135 1.338751
Si 4.083061 9.503708 1.264175
Si 10.827754 8.187618 2.699902
Si 2.701600 5.423879 2.731958
Si 1.311400 9.518360 4.094628
Si 4.011848 6.797259 4.102372
Si 0.032203 5.347551 5.465971
Si 2.661130 8.164500 5.453574
Si 1.260022 6.822912 6.785864
Si 4.111845 9.501818 6.825994
Si 10.829103 8.194431 8.222652
Si 2.725976 5.442888 8.029924
Si 1.346266 9.510634 9.498218
Si 4.056995 6.783713 9.481435
Si 5.414154 0.082274 10.798745
Si 8.164987 2.679954 10.815618
Si 6.832705 1.395712 1.361463
Si 9.483076 4.029124 1.375450
Si 5.550076 2.729674 2.723732
Si 8.090162 10.790772 2.661333
Si 6.869625 4.116114 4.052258
Si 9.499556 1.265795 4.027890
Si 5.449852 10.827980 5.428797
Si 8.160654 2.635672 5.393644
Si 6.765729 1.300898 6.759892
Si 9.422632 4.089378 6.812206
Si 5.488430 2.729805 8.164260
Si 8.160617 0.046631 8.210585
Si 6.636352 4.090823 9.587465
Si 9.557853 1.385507 9.474795
Si 5.404354 5.503038 0.074032
Si 8.138503 8.205525 0.097260
Si 6.835911 6.790356 1.436933
Si 9.573717 9.564147 1.319249
Si 5.368705 8.143902 2.655276
Si 8.239898 5.455584 2.701252
Si 6.732020 9.397193 4.078444
Si 9.641161 6.787397 4.121107
Si 5.467614 5.375386 5.486647
Si 8.246349 8.137895 5.410579
Si 6.781746 6.822867 6.742894
Si 9.511747 9.564113 6.791778
Si 5.433070 8.138044 8.153809
Si 8.082044 5.394602 8.157427
Si 6.800990 9.485614 9.555908
Si 9.359666 6.789842 9.481789
64
Step 2450
Si 0.091316 0.040161 0.027229
Si 2.733365 2.810174 10.849994
Si 1.413635 1.408204 1.412558
Si 4.078425 4.066869 1.385060
Si 10.857314 2.682697 2.789936
Si 2.698010 10.842499 2.700720
Si 1.327522 4.087369 4.086993
Si 4.045144 1.323643 4.026950
Si 10.824957 10.830788 5.435095
Si 2.773734 2.751189 5.446039
Si 1.436107 1.329265 6.746023
Si 4.151598 4.165295 6.820633
Si 0.062893 2.670652 8.102860
Si 2.828418 0.076906 8.144912
Si 1.366667 4.088054 9.445025
Si 4.110979 1.416176 9.569472
Si 0.007908 5.325895 10.832682
Si 2.600448 8.050692 10.832082
Si 1.276273 6.678873 1.320295
Si 4.009030 9.393829 1.323396
Si 0.037657 8.106903 2.710187
Si 2.746949 5.438042 2.736847
Si 1.354869 9.512252 4.092814
Si 4.039145 6.713824 4.107197
Si 10.729342 5.449287 5.433189
Si 2.709411 8.149711 5.456712
Si 1.287174 6.813353 6.794572
Si 4.099513 9.535116 6.766919
Si 10.846053 8.155922 8.179982
Si 2.653136 5.489628 8.155414
Si 1.393598 9.535419 9.478544
Si 4.046573 6.786625 9.450976
Si 5.358186 10.827684 0.034610
Si 8.149246 2.714989 10.843589
Si 6.734679 1.297600 1.347770
Si 9.504286 4.003410 1.339263
Si 5.418260 2.697310 2.704225
Si 8.091249 10.767439 2.695515
Si 6.798657 4.031177 4.073001
Si 9.390714 1.281965 4.076847
Si 5.442857 0.016213 5.441223
Si 8.172176 2.692464 5.429148
Si 6.845674 1.358226 6.784602
Si 9.476522 4.044927 6.844060
Si 5.506313 2.736394 8.114919
Si 8.188335 0.044158 8.240492
Si 6.820966 4.134062 9.461375
Si 9.607171 1.394751 9.485921
Si 5.447094 5.410970 10.850162
Si 8.215728 8.228531 10.835234
Si 6.735304 6.868280 1.273907
Si 9.567855 9.477157 1.375725
Si 5.347711 8.095589 2.722583
Si 8.069839 5.370021 2.634132
Si 6.708346 9.499837 4.089293
Si 9.444806 6.823467 4.057215
Si 5.542451 5.462465 5.457430
Si 8.122673 8.161709 5.457816
Si 6.810698 6.820217 6.819562
Si 9.475767 9.534079 6.791649
Si 5.410475 8.176995 8.223724
Si 8.236308 5.500475 8.146464
Si 6.790389 9.586470 9.496754
Si 9.516102 6.799668 9.498480
64
Step 2500
Si 0.010167 10.776348 0.022591
Si 2.768268 2.701598 0.054809
Si 1.238909 1.369454 1.352118
Si 4.106720 4.104864 1.303649
Si 10.851089 2.815144 2.819403
Si 2.595882 10.846591 2.707875
Si 1.393373 4.073116 4.188092
Si 4.024985 1.282876 4.079410
Si 0.001466 10.859629 5.408984
Si 2.805810 2.744375 5.456385
Si 1.394148 1.320648 6.740899
Si 4.072295 4.089990 6.775535
Si 10.860644 2.673277 8.070590
Si 2.780143 0.125757 8.168845
Si 1.378478 4.031753 9.481952
Si 4.155333 1.382726 9.543976
Si 0.062005 5.330047 0.003064
Si 2.675484 8.137372 10.832493
Si 1.342624 6.781950 1.391401
Si 3.984603 9.455842 1.457890
Si 10.822694 8.063090 2.762238
Si 2.694141 5.392127 2.802890
Si 1.366394 9.431306 4.057091
Si 4.095573 6.748713 4.063949
Si 10.797947 5.516365 5.313614
Si 2.758669 8.118780 5.448700
Si 1.352396 6.768253 6.726885
Si 4.023507 9.517226 6.779647
Si 0.054278 8.215268 8.079483
Si 2.739583 5.454460 8.142328
Si 1.386391 9.552651 9.485470
Si 4.065392 6.853277 9.478107
Si 5.417680 10.786587 0.099331
Si 8.134013 2.713831 0.071584
Si 6.783635 1.279603 1.345216
Si 9.436646 4.058403 1.420485
Si 5.347517 2.662414 2.711393
Si 8.177352 0.004997 2.723897
Si 6.726588 4.066108 4.036373
Si 9.522019 1.397975 4.103677
Si 5.432462 0.055716 5.449871
Si 8.135506 2.805427 5.452941
Si 6.813632 1.393481 6.861066
Si 9.607444 4.104231 6.734271
Si 5.417335 2.775902 8.149724
Si 8.175145 10.844486 8.135161
Si 6.961412 4.027429 9.484865
Si 9.495501 1.352912 9.565495
Si 5.499630 5.398493 10.771751
Si 8.125257 8.105820 10.803902
Si 6.774321 6.758281 1.243156
Si 9.497843 9.463768 1.347451
Si 5.482728 8.081748 2.724248
Si 8.030190 5.408544 2.644642
Si 6.773571 9.554371 4.027210
Si 9.302768 6.775154 4.014443
Si 5.431716 5.464268 5.427370
Si 8.054592 8.188944 5.404475
Si 6.820787 6.800168 6.838476
Si 9.490289 9.497623 6.765494
Si 5.385637 8.194897 8.206990
Si 8.249914 5.483627 8.160606
Si 6.790963 9.557764 9.484009
Si 9.630513 6.848161 9.512056
64
Step 2550
Si 10.758919 10.845651 10.846688
Si 2.662400 2.639841 0.038052
Si 1.299842 1.295939 1.333323
Si 4.080689 4.016315 1.258389
Si 0.000999 2.716430 2.662273
Si 2.686849 10.824538 2.739024
Si 1.388756 4.098720 4.030698
Si 4.097644 1.344007 4.086608
Si 0.050229 0.047844 5.417186
Si 2.708573 2.673225 5.454557
Si 1.224374 1.363083 6.879271
Si 4.031947 3.994868 6.812690
Si 10.813014 2.801057 8.208192
Si 2.683245 10.843572 8.156342
Si 1.319408 4.036260 9.591303
Si 4.075752 1.352833 9.512317
Si 0.092474 5.478427 10.817296
Si 2.775203 8.185360 0.090662
Si 1.404575 6.818376 1.393953
Si 4.066175 9.582748 1.379545
Si 10.764191 8.148332 2.638353
Si 2.742690 5.415249 2.641907
Si 1.257533 9.427533 4.066131
Si 4.125093 6.842515 4.013951
Si 0.083098 5.413618 5.475895
Si 2.758071 8.175044 5.382591
Si 1.441644 6.798858 6.806637
Si 4.082880 9.530407 6.806848
Si 0.059256 8.158267 8.109368
Si 2.706192 5.371666 8.169859
Si 1.355746 9.508676 9.551169
Si 4.067405 6.863754 9.497790
Si 5.489640 0.014555 0.008953
Si 8.160498 2.677263 10.832382
Si 6.832088 1.378534 1.407228
Si 9.540882 4.136011 1.327755
Si 5.388609 2.728188 2.691358
Si 8.225571 0.095121 2.788082
Si 6.672039 4.034491 4.097012
Si 9.554721 1.458744 4.114608
Si 5.421001 0.032307 5.453783
Si 8.110458 2.759097 5.453201
Si 6.779678 1.382212 6.737101
Si 9.561355 4.038618 6.809414
Si 5.467009 2.660484 8.221897
Si 8.104606 10.820862 8.036443
Si 6.872388 4.078788 9.521701
Si 9.429834 1.300019 9.463624
Si 5.374596 5.401317 10.840829
Si 8.173995 8.066595 10.777663
Si 6.787987 6.757965 1.337105
Si 9.420150 9.550457 1.319595
Si 5.465975 8.234826 2.653516
Si 8.129024 5.439982 2.777685
Si 6.808998 9.539612 4.064516
Si 9.505342 6.762817 4.071409
Si 5.392163 5.438960 5.476384
Si 8.099263 8.150539 5.442655
Si 6.823679 6.758270 6.828757
Si 9.501069 9.492726 6.774222
Si 5.428092 8.121119 8.099916
Si 8.119075 5.456811 8.154491
Si 6.794031 9.438374 9.519710
Si 9.623315 6.765331 9.474133
64
Step 2600
Si 10.781263 0.014627 10.801959
Si 2.684571 2.606842 10.813184
Si 1.355652 1.291793 1.408401
Si 4.061126 4.075556 1.357119
Si 0.047074 2.752661 2.623322
Si 2.770399 0.012432 2.718725
Si 1.388720 4.056786 3.994689
Si 3.999244 1.432445 4.093274
Si 0.011729 0.032937 5.485878
Si 2.635529 2.730632 5.434545
Si 1.324110 1.349977 6.830356
Si 4.040125 4.024964 6.791419
Si 10.803632 2.741681 8.177839
Si 2.629040 10.758662 8.171102
Si 1.369160 4.127661 9.537336
Si 4.063264 1.266716 9.468205
Si 10.797149 5.528449 0.012096
Si 2.775224 8.203023 0.003373
Si 1.417503 6.824316 1.409819
Si 4.206459 9.599705 1.302893
Si 10.845513 8.207156 2.731207
Si 2.762758 5.485937 2.673966
Si 1.336532 9.570136 4.113092
Si 4.116739 6.833410 4.045820
Si 0.091276 5.378905 5.499617
Si 2.676732 8.133882 5.383823
Si 1.459685 6.766427 6.796010
Si 4.071464 9.491634 6.792893
Si 0.010024 8.080183 8.142265
Si 2.759011 5.416005 8.148594
Si 1.354600 9.456100 9.493986
Si 4.064320 6.716525 9.555217
Si 5.523030 0.059486 10.767232
Si 8.147363 2.806534 10.839659
Si 6.818239 1.476419 1.349551
Si 9.516638 4.143081 1.356762
Si 5.483399 2.741269 2.752417
Si 8.104486 0.025677 2.733191
Si 6.815886 4.161161 4.091898
Si 9.541631 1.406467 4.071373
Si 5.392058 10.808454 5.364744
Si 8.162229 2.746405 5.397894
Si 6.752789 1.338011 6.744393
Si 9.509097 4.073812 6.792035
Si 5.419645 2.663832 8.153488
Si 8.110314 10.797986 8.106835
Si 6.633580 4.123745 9.526886
Si 9.403470 1.326079 9.463445
Si 5.389697 5.495321 0.072476
Si 8.108218 8.149062 0.015713
Si 6.833264 6.804566 1.458721
Si 9.433105 9.503166 1.361327
Si 5.476276 8.178947 2.700918
Si 8.269869 5.466761 2.780272
Si 6.858566 9.468813 4.134424
Si 9.647719 6.699730 4.098339
Si 5.313174 5.385629 5.447030
Si 8.284518 8.057539 5.418764
Si 6.755098 6.736296 6.735023
Si 9.507200 9.440899 6.791533
Si 5.434645 8.073169 8.099288
Si 7.981519 5.400202 8.145821
Si 6.783197 9.439218 9.510607
Si 9.464454 6.756107 9.489908
64
Step 2650
Si 10.859794 0.010835 10.849545
Si 2.736523 2.781352 10.793767
Si 1.402310 1.400826 1.260838
Si 4.033445 4.087016 1.466341
Si 0.017310 2.651961 2.718035
Si 2.718974 0.095129 2.635781
Si 1.352672 4.050077 4.120476
Si 4.136307 1.327666 4.009940
Si 10.794275 10.858191 5.432619
Si 2.724737 2.642398 5.405346
Si 1.363175 1.351167 6.759253
Si 4.059381 4.115742 6.760636
Si 10.849487 2.685294 8.139557
Si 2.717566 10.825825 8.126811
Si 1.379523 4.023047 9.495694
Si 4.040582 1.365401 9.495504
Si 10.791166 5.468658 10.837446
Si 2.676137 8.185175 10.851916
Si 1.358785 6.834493 1.331246
Si 4.124505 9.454396 1.385658
Si 0.168808 8.246106 2.748902
Si 2.675254 5.485270 2.692307
Si 1.469740 9.644529 4.073079
Si 4.015500 6.785772 4.100325
Si 10.804048 5.367659 5.436920
Si 2.698208 8.153170 5.465487
Si 1.308366 6.747745 6.811461
Si 4.089538 9.459342 6.738704
Si 10.778682 8.049015 8.202394
Si 2.711211 5.430810 8.265987
Si 1.308924 9.473751 9.506315
Si 4.078863 6.740697 9.591333
Si 5.433938 0.003044 0.003025
Si 8.131169 2.769851 0.015642
Si 6.758194 1.391568 1.361128
Si 9.538626 4.031601 1.306491
Si 5.429829 2.732482 2.726325
Si 8.102859 10.854810 2.671444
Si 6.903761 4.059264 4.059035
Si 9.442468 1.287446 4.006984
Si 5.488561 10.818034 5.421519
Si 8.175141 2.666265 5.456679
Si 6.812421 1.301222 6.748186
Si 9.466450 4.022383 6.799808
Si 5.396539 2.701990 8.025665
Si 8.168814 0.036212 8.151266
Si 6.681468 4.067002 9.446401
Si 9.521489 1.428677 9.539258
Si 5.429969 5.451970 0.063047
Si 8.128371 8.246264 0.048532
Si 6.815741 6.812661 1.408584
Si 9.553307 9.500772 1.409031
Si 5.471283 8.170189 2.823502
Si 8.227539 5.447914 2.716992
Si 6.845016 9.509149 4.125841
Si 9.600887 6.883781 4.080822
Si 5.490212 5.429022 5.366854
Si 8.173471 8.116528 5.435873
Si 6.729990 6.771131 6.789115
Si 9.537596 9.459974 6.820103
Si 5.372849 8.165083 8.143859
Si 8.090208 5.396562 8.128216
Si 6.767603 9.532341 9.404289
Si 9.378433 6.720296 9.570852
64
Step 2700
Si 0.099059 10.856380 0.013937
Si 2.774209 2.838742 10.829394
Si 1.379102 1.446829 1.307700
Si 4.083285 4.147433 1.423796
Si 10.848846 2.702458 2.783759
Si 2.714430 10.860455 2.701772
Si 1.262811 4.028527 4.168155
Si 4.164633 1.344673 4.062280
Si 0.024631 10.794608 5.400460
Si 2.781240 2.690502 5.417980
Si 1.455742 1.363520 6.743003
Si 4.073553 4.075405 6.755429
Si 0.086061 2.665037 8.107176
Si 2.755140 0.099025 8.113908
Si 1.418523 4.035381 9.414211
Si 4.102846 1.413934 9.471217
Si 10.815507 5.365222 0.008162
Si 2.661222 8.155167 10.854395
Si 1.313413 6.754918 1.330200
Si 4.015505 9.434318 1.365617
Si 10.829825 8.125539 2.686933
Si 2.627832 5.376566 2.782037
Si 1.437451 9.467769 4.035480
Si 4.029190 6.770651 4.119573
Si 10.821833 5.498468 5.394976
Si 2.677380 8.141951 5.530480
Si 1.215758 6.784071 6.823218
Si 4.026291 9.495622 6.838660
Si 10.812084 8.155252 8.174360
Si 2.685345 5.454056 8.122089
Si 1.326786 9.529694 9.457072
Si 4.058211 6.794811 9.526140
Si 5.319968 10.816684 0.004517
Si 8.140446 2.695907 0.038912
Si 6.724341 1.263353 1.275974
Si 9.464429 3.991605 1.383527
Si 5.457921 2.767779 2.667850
Si 8.189569 10.846782 2.667385
Si 6.827237 4.077676 4.026988
Si 9.575049 1.320075 4.081981
Si 5.459828 0.013525 5.498929
Si 8.158828 2.671562 5.397328
Si 6.820779 1.382262 6.878484
Si 9.501725 4.090929 6.793416
Si 5.382612 2.787052 8.108690
Si 8.217821 10.861659 8.218866
Si 6.824235 4.010597 9.510247
Si 9.550548 1.393008 9.541611
Si 5.518830 5.434466 10.822694
Si 8.119954 8.105941 10.861318
Si 6.781061 6.785208 1.328467
Si 9.566728 9.516740 1.277742
Si 5.337769 8.072240 2.710808
Si 8.111076 5.461060 2.618028
Si 6.791010 9.474412 4.015703
Si 9.455894 6.874539 4.062465
Si 5.486306 5.434577 5.418174
Si 8.105050 8.158319 5.489915
Si 6.773976 6.816707 6.844072
Si 9.508555 9.568890 6.792128
Si 5.452216 8.199304 8.228256
Si 8.193636 5.428569 8.163998
Si 6.746545 9.565264 9.535675
Si 9.504313 6.754334 9.556277
64
Step 2750
Si 0.098200 0.066475 0.026154
Si 2.703261 2.770815 0.100364
Si 1.459925 1.368315 1.483706
Si 4.106151 4.092837 1.316436
Si 0.017583 2.707866 2.725040
Si 2.726824 10.780207 2.833055
Si 1.357860 4.142760 4.042968
Si 4.121060 1.322378 4.110015
Si 0.052550 10.793206 5.383390
Si 2.755404 2.754549 5.360920
Si 1.397084 1.385413 6.808783
Si 4.116915 4.078988 6.805259
Si 0.050362 2.765636 8.098299
Si 2.781564 0.053512 8.139530
Si 1.380278 4.075551 9.444311
Si 4.099616 1.423883 9.539182
Si 0.039837 5.365248 0.064032
Si 2.652250 8.024156 10.830455
Si 1.311191 6.642773 1.370507
Si 3.940907 9.508309 1.348261
Si 10.700259 8.032937 2.660622
Si 2.748104 5.410317 2.731407
Si 1.248936 9.367619 4.008345
Si 4.051087 6.759150 4.091576
Si 10.795041 5.484686 5.449182
Si 2.746692 8.162545 5.406757
Si 1.368725 6.842920 6.769361
Si 4.116091 9.564873 6.787451
Si 0.015863 8.263057 8.153097
Si 2.701780 5.444611 8.052401
Si 1.398052 9.523696 9.516284
Si 4.030701 6.830795 9.419248
Si 5.399377 0.025200 0.021102
Si 8.177974 2.609052 0.016241
Si 6.846264 1.286114 1.425597
Si 9.493202 4.073378 1.386790
Si 5.412511 2.727554 2.705515
Si 8.136179 10.791308 2.783087
Si 6.703646 4.053915 4.111036
Si 9.508658 1.353245 4.106058
Si 5.416467 0.034271 5.408198
Si 8.146421 2.745608 5.415702
Si 6.820795 1.368793 6.775979
Si 9.453675 4.090797 6.794384
Si 5.546284 2.765873 8.194398
Si 8.099560 0.022344 8.183143
Si 6.912924 4.106954 9.565885
Si 9.575947 1.321191 9.447808
Si 5.398970 5.433828 10.760273
Si 8.196287 8.088193 10.813535
Si 6.711943 6.808601 1.330073
Si 9.489397 9.541461 1.295905
Si 5.358158 8.150586 2.711601
Si 8.021127 5.397640 2.705486
Si 6.678925 9.515600 4.045501
Si 9.382093 6.781469 4.056343
Si 5.414097 5.470507 5.492887
Si 8.041994 8.209578 5.414197
Si 6.862855 6.833596 6.802545
Si 9.437988 9.542906 6.751891
Si 5.453166 8.101550 8.161997
Si 8.238678 5.404960 8.113001
Si 6.789876 9.472900 9.560477
Si 9.644406 6.782951 9.488956
64
Step 2800
Si 10.806583 10.845981 0.023895
Si 2.729495 2.594402 0.048250
Si 1.308976 1.316556 1.396272
Si 4.122883 4.006832 1.253807
Si 10.856813 2.745107 2.752942
Si 2.677347 10.817948 2.669975
Si 1.453668 4.140121 4.065484
Si 3.933785 1.397069 4.088042
Si 10.814175 0.049756 5.466090
Si 2.623987 2.782835 5.499787
Si 1.332374 1.321322 6.795732
Si 4.066085 4.017697 6.849848
Si 0.003459 2.695168 8.164443
Si 2.730711 0.027177 8.180090
Si 1.351924 4.042925 9.559894
Si 4.127323 1.331520 9.547502
Si 0.003958 5.424522 0.018084
Si 2.730501 8.178302 10.845457
Si 1.302277 6.747673 1.302816
Si 4.119020 9.534987 1.315250
Si 10.820152 8.118487 2.776111
Si 2.757313 5.429583 2.684483
Si 1.245495 9.531594 4.158136
Si 4.112467 6.812351 4.080511
Si 0.027824 5.445811 5.379375
Si 2.702340 8.162760 5.370893
Si 1.408810 6.834278 6.716518
Si 4.058548 9.533085 6.777521
Si 0.068751 8.200659 8.094903
Si 2.705992 5.408794 8.124939
Si 1.406876 9.550752 9.512112
Si 4.068476 6.804010 9.424569
Si 5.509623 0.009805 0.065095
Si 8.203490 2.676389 10.837500
Si 6.848839 1.421939 1.376801
Si 9.518789 4.102384 1.421779
Si 5.398455 2.618791 2.728992
Si 8.164719 0.019136 2.694793
Si 6.710771 4.077906 4.090337
Si 9.477788 1.345251 4.052861
Si 5.384233 0.052408 5.425280
Si 8.138168 2.741373 5.392247
Si 6.790193 1.381119 6.775710
Si 9.528253 4.124372 6.802732
Si 5.508097 2.653991 8.240507
Si 8.130381 10.822279 8.129341
Si 6.827738 4.081792 9.538406
Si 9.512861 1.339152 9.507731
Si 5.391159 5.470504 10.859670
Si 8.139530 8.217363 10.842274
Si 6.809574 6.821996 1.301696
Si 9.470672 9.433255 1.359751
Si 5.459436 8.147987 2.625372
Si 8.089055 5.373503 2.725820
Si 6.771316 9.501441 4.073974
Si 9.429887 6.676992 4.023014
Si 5.402343 5.430968 5.487126
Si 8.188281 8.108712 5.392831
Si 6.794993 6.747973 6.806461
Si 9.528669 9.486820 6.809739
Si 5.404780 8.148638 8.100030
Si 8.213754 5.414953 8.149856
Si 6.798750 9.516853 9.526953
Si 9.561013 6.905897 9.475585
64
Step 2850
Si 10.784079 10.766331 10.846797
Si 2.711521 2.661788 10.811780
Si 1.226431 1.328545 1.277017
Si 4.046615 4.086157 1.328482
Si 0.003602 2.730667 2.714497
Si 2.691256 0.109007 2.623437
Si 1.429771 4.088574 4.037665
Si 4.004259 1.345104 4.044518
Si 10.796630 0.064609 5.459804
Si 2.698520 2.663779 5.479809
Si 1.275976 1.365857 6.821350
Si 4.012627 4.073194 6.847415
Si 10.792874 2.731592 8.245860
Si 2.691094 10.791026 8.172583
Si 1.346474 4.103871 9.601285
Si 4.066142 1.312199 9.504643
Si 0.097316 5.526533 10.838011
Si 2.800647 8.243189 0.045263
Si 1.395027 6.901428 1.297683
Si 4.153035 9.487070 1.434069
Si 0.157350 8.198140 2.744926
Si 2.706939 5.504913 2.673257
Si 1.389447 9.579046 4.100752
Si 4.119512 6.798948 3.997110
Si 0.061169 5.404398 5.437714
Si 2.724655 8.125732 5.424330
Si 1.412585 6.715696 6.799279
Si 4.060591 9.464112 6.745374
Si 0.041655 8.034682 8.120508
Si 2.695213 5.380672 8.292540
Si 1.346980 9.496075 9.509756
Si 4.103398 6.794332 9.564062
Si 5.491102 10.833672 0.012755
Si 8.138721 2.819789 10.810301
Si 6.748406 1.463183 1.358955
Si 9.570639 4.117861 1.333529
Si 5.373440 2.697128 2.742116
Si 8.140558 0.014225 2.727104
Si 6.766946 4.045096 4.067894
Si 9.461765 1.459324 4.049734
Si 5.465384 10.830192 5.395916
Si 8.115382 2.740077 5.474304
Si 6.753844 1.322459 6.744223
Si 9.536493 4.099896 6.835344
Si 5.394147 2.676471 8.120908
Si 8.161006 0.018685 8.063334
Si 6.745050 4.102235 9.447823
Si 9.421566 1.373705 9.540250
Si 5.433512 5.359863 0.031881
Si 8.118584 8.162512 10.856127
Si 6.804492 6.748388 1.344986
Si 9.526904 9.448048 1.440813
Si 5.527517 8.163988 2.761208
Si 8.210701 5.419331 2.712584
Si 6.878613 9.513860 4.147281
Si 9.574349 6.794003 4.079537
Si 5.383488 5.370830 5.425806
Si 8.147532 8.070862 5.448184
Si 6.735238 6.736805 6.794967
Si 9.503600 9.395364 6.786257
Si 5.374541 8.154436 8.054905
Si 8.146747 5.445124 8.120981
Si 6.786913 9.521387 9.389163
Si 9.441431 6.787943 9.485245
64
Step 2900
Si 10.843266 0.009799 10.780988
Si 2.681497 2.745294 10.813762
Si 1.400927 1.346020 1.329404
Si 4.013984 4.109795 1.402116
Si 0.012057 2.735817 2.642557
Si 2.767666 0.034649 2.797914
Si 1.306908 3.989033 4.063893
Si 4.147309 1.392180 4.031985
Si 0.049323 10.855832 5.398387
Si 2.714903 2.616024 5.403703
Si 1.290526 1.380683 6.791174
Si 4.047565 4.034409 6.710100
Si 10.843386 2.701368 8.157752
Si 2.658836 10.820731 8.093626
Si 1.327540 4.151061 9.490256
Si 3.997720 1.290258 9.462902
Si 10.846199 5.476396 0.029656
Si 2.771716 8.208767 0.008086
Si 1.457925 6.902460 1.473921
Si 4.132249 9.578226 1.412156
Si 10.860436 8.255133 2.690749
Si 2.699677 5.407837 2.760521
Si 1.412507 9.475624 4.034257
Si 4.051601 6.757126 4.094519
Si 0.036374 5.364446 5.475348
Si 2.722024 8.139167 5.427872
Si 1.387772 6.741363 6.856901
Si 4.067786 9.455777 6.824284
Si 10.787077 8.089080 8.165644
Si 2.796030 5.459215 8.174496
Si 1.305723 9.443671 9.447103
Si 4.111427 6.808860 9.602692
Si 5.449478 0.053644 10.761276
Si 8.081959 2.740315 0.056773
Si 6.748440 1.318242 1.350364
Si 9.426404 4.073862 1.350873
Si 5.489794 2.809551 2.663216
Si 8.166255 0.060648 2.707626
Si 6.877292 4.123114 4.031037
Si 9.544755 1.391054 4.113110
Si 5.456512 10.791852 5.396474
Si 8.142014 2.752997 5.443074
Si 6.769847 1.348867 6.777598
Si 9.509237 4.039707 6.775546
Si 5.312293 2.696692 8.072986
Si 8.136838 10.811950 8.149091
Si 6.713270 4.019952 9.466152
Si 9.399885 1.360011 9.510208
Si 5.435185 5.410580 0.048268
Si 8.105171 8.080581 0.012458
Si 6.848301 6.727820 1.449712
Si 9.424949 9.590057 1.334649
Si 5.482204 8.140022 2.789840
Si 8.228786 5.510311 2.777084
Si 6.890246 9.512024 4.039911
Si 9.662182 6.818600 4.127372
Si 5.386694 5.384898 5.366831
Si 8.198837 8.098025 5.473297
Si 6.721075 6.785871 6.705050
Si 9.547082 9.554137 6.739180
Si 5.462466 8.181933 8.177567
Si 8.078652 5.434002 8.152914
Si 6.786769 9.456191 9.533690
Si 9.413191 6.730394 9.520043
64
Step 2950
Si 0.081818 0.118228 10.847237
Si 2.669984 2.783663 0.028857
Si 1.461058 1.350444 1.357151
Si 4.054737 4.054211 1.365358
Si 0.010726 2.665399 2.671514
Si 2.831579 10.812975 2.712923
Si 1.273326 4.005265 4.091297
Si 4.177135 1.318379 4.088855
Si 0.025227 10.805430 5.392359
Si 2.737548 2.732914 5.367516
Si 1.381357 1.378066 6.780546
Si 4.087797 4.064744 6.771602
Si 0.035872 2.764948 8.141166
Si 2.671607 10.848053 8.097488
Si 1.338991 4.112151 9.480811
Si 4.009863 1.407310 9.470468
Si 10.782815 5.377495 0.002812
Si 2.601898 8.080985 0.008105
Si 1.325065 6.726302 1.394408
Si 4.050484 9.456614 1.287581
Si 10.820344 8.164133 2.670703
Si 2.676688 5.383406 2.680510
Si 1.409883 9.514627 4.014031
Si 4.036915 6.817063 4.106818
Si 10.857853 5.435358 5.511725
Si 2.708781 8.146870 5.487825
Si 1.310922 6.865255 6.833969
Si 4.138653 9.517961 6.807553
Si 10.789243 8.179382 8.200724
Si 2.742586 5.460916 8.081703
Si 1.337720 9.471521 9.527799
Si 4.018923 6.816774 9.492098
Si 5.300819 0.065813 10.847781
Si 8.184458 2.696347 10.848099
Si 6.828350 1.330511 1.326419
Si 9.488657 4.022432 1.285546
Si 5.460775 2.733289 2.714870
Si 8.162778 10.848308 2.680711
Si 6.844168 4.097280 4.108535
Si 9.541058 1.308131 4.035851
Si 5.449213 0.014474 5.479473
Si 8.198656 2.658624 5.456026
Si 6.804521 1.331393 6.815974
Si 9.440742 4.025102 6.772323
Si 5.436838 2.695035 8.140559
Si 8.112301 10.860537 8.183444
Si 6.708330 4.025885 9.531336
Si 9.580959 1.325282 9.425552
Si 5.427229 5.508169 10.849710
Si 8.193546 8.127630 0.034486
Si 6.758481 6.813900 1.428363
Si 9.545382 9.599451 1.261027
Si 5.337158 8.161872 2.686437
Si 8.185147 5.463558 2.724752
Si 6.731616 9.499173 4.053943
Si 9.517290 6.848451 4.098993
Si 5.511331 5.495055 5.461345
Si 8.169955 8.223816 5.401933
Si 6.890581 6.818299 6.789859
Si 9.530475 9.562380 6.829083
Si 5.497527 8.109654 8.208810
Si 8.017124 5.379190 8.232768
Si 6.767110 9.486354 9.580382
Si 9.504028 6.673769 9.516086
64
Step 3000
Si 0.053235 10.825474 0.050147
Si 2.818259 2.773472 0.053689
Si 1.370583 1.418109 1.406990
Si 4.115135 4.051786 1.458917
Si 0.022794 2.707437 2.838514
Si 2.700924 10.836873 2.677880
Si 1.384887 4.171866 4.166864
Si 4.079278 1.398016 4.109233
Si 0.019618 10.858259 5.422686
Si 2.739373 2.838395 5.446691
Si 1.471019 1.335993 6.711736
Si 4.125699 4.178554 6.769168
Si 0.052236 2.732543 8.046565
Si 2.740696 0.092396 8.150802
Si 1.427099 4.041488 9.447296
Si 4.100965 1.393091 9.525839
Si 10.770289 5.334419 10.819262
Si 2.618624 8.023451 10.857140
Si 1.251358 6.643589 1.378118
Si 4.005472 9.409931 1.268916
Si 0.028649 8.067981 2.769839
Si 2.695504 5.446443 2.702468
Si 1.370660 9.540960 4.138413
Si 4.089012 6.763726 4.103068
Si 10.762693 5.525862 5.378550
Si 2.718812 8.162115 5.439957
Si 1.312496 6.857921 6.716391
Si 4.056451 9.519671 6.770266
Si 0.001336 8.179614 8.163631
Si 2.657221 5.437759 8.047781
Si 1.417250 9.559101 9.474860
Si 4.074144 6.761056 9.411863
Si 5.389570 10.822783 0.062174
Si 8.169292 2.681062 10.847690
Si 6.748666 1.387052 1.347115
Si 9.505477 3.996214 1.364888
Si 5.467560 2.653016 2.777123
Si 8.102108 10.781847 2.652932
Si 6.732145 4.023641 4.109216
Si 9.462691 1.244292 4.007429
Si 5.390956 0.023907 5.465808
Si 8.204457 2.729333 5.392098
Si 6.846300 1.377304 6.820222
Si 9.527178 4.048884 6.723217
Si 5.478139 2.767110 8.184453
Si 8.176098 10.840573 8.226969
Si 6.828369 4.147531 9.591166
Si 9.644664 1.391653 9.455395
Si 5.408487 5.483822 10.852195
Si 8.121172 8.233388 0.036274
Si 6.766103 6.814755 1.254709
Si 9.608046 9.388915 1.391656
Si 5.351963 8.067390 2.688244
Si 8.040541 5.370633 2.700497
Si 6.709418 9.491006 4.028033
Si 9.358574 6.746151 3.985665
Si 5.492606 5.506073 5.449746
Si 8.111293 8.207013 5.379088
Si 6.851111 6.813073 6.875859
Si 9.459845 9.497986 6.796072
Si 5.439641 8.106877 8.158135
Si 8.131291 5.412923 8.158736
Si 6.770808 9.533181 9.513709
Si 9.513661 6.831269 9.563940
64
Step 3050
Si 0.023229 10.821345 0.035071
Si 2.738752 2.668163 0.010425
Si 1.332318 1.331839 1.424892
Si 4.071331 4.076892 1.378683
Si 0.015664 2.725963 2.717271
Si 2.606306 0.032874 2.688694
Si 1.380459 4.100205 4.075979
Si 3.990410 1.300900 4.085810
Si 10.852737 0.020400 5.429436
Si 2.773044 2.729008 5.452796
Si 1.368463 1.350596 6.786341
Si 4.114190 4.079227 6.876096
Si 10.832572 2.697929 8.182831
Si 2.780565 0.062122 8.209948
Si 1.424130 4.019934 9.499759
Si 4.184895 1.423004 9.556396
Si 0.005892 5.381635 0.017439
Si 2.716852 8.179830 10.829857
Si 1.374741 6.772146 1.289590
Si 3.973070 9.520335 1.438914
Si 10.838345 8.123945 2.695963
Si 2.723013 5.467160 2.750003
Si 1.300892 9.522773 4.072439
Si 4.096969 6.796711 4.058697
Si 10.788697 5.435998 5.384034
Si 2.726066 8.181043 5.382647
Si 1.310678 6.782436 6.772729
Si 4.053798 9.584760 6.765621
Si 10.857398 8.195277 8.132785
Si 2.660129 5.461795 8.182983
Si 1.357383 9.514066 9.471501
Si 4.065845 6.801914 9.514671
Si 5.466274 10.755675 0.020922
Si 8.157328 2.679128 0.016010
Si 6.812211 1.283610 1.366760
Si 9.514427 4.039167 1.397424
Si 5.388991 2.642508 2.701204
Si 8.113166 10.831034 2.781953
Si 6.798012 4.040764 4.071077
Si 9.488757 1.401824 4.104452
Si 5.481364 0.034254 5.419896
Si 8.123824 2.683721 5.482974
Si 6.777057 1.378213 6.812831
Si 9.532342 4.044088 6.783562
Si 5.528159 2.750460 8.141059
Si 8.203235 0.072819 8.119906
Si 6.940644 4.098242 9.443663
Si 9.517644 1.346187 9.585594
Si 5.431141 5.368281 10.804247
Si 8.149919 8.122138 10.804106
Si 6.770589 6.772495 1.254313
Si 9.498046 9.475468 1.397372
Si 5.489986 8.173884 2.716622
Si 8.066590 5.372948 2.649859
Si 6.747265 9.539240 4.073521
Si 9.395843 6.728928 3.999135
Si 5.398000 5.386417 5.452270
Si 8.084360 8.144120 5.417804
Si 6.751855 6.799686 6.838805
Si 9.457781 9.489148 6.741415
Si 5.351192 8.172430 8.142757
Si 8.233488 5.524894 8.073022
Si 6.829530 9.568392 9.433543
Si 9.608142 6.839615 9.503611
64
Step 3100
Si 10.752089 10.813193 10.824689
Si 2.694105 2.691920 10.845771
Si 1.345442 1.286399 1.338515
Si 4.097186 4.118887 1.277062
Si 10.835038 2.768190 2.677846
Si 2.698412 10.834393 2.766130
Si 1.385055 4.007512 4.011802
Si 4.047492 1.407911 4.034297
Si 0.016757 0.037017 5.481185
Si 2.663609 2.620781 5.502679
Si 1.271088 1.414181 6.897666
Si 3.994309 3.997875 6.806296
Si 10.852807 2.713963 8.267856
Si 2.729862 10.857959 8.143596
Si 1.330477 4.075595 9.566446
Si 4.087842 1.300785 9.508150
Si 0.140881 5.541765 0.058684
Si 2.785515 8.256653 0.028309
Si 1.436107 6.919297 1.369823
Si 4.167586 9.575848 1.394422
Si 10.756549 8.166385 2.618271
Si 2.804991 5.413427 2.715295
Si 1.239323 9.388694 4.049346
Si 4.021514 6.813206 4.067339
Si 0.118948 5.360859 5.450295
Si 2.706268 8.122321 5.425145
Si 1.400782 6.740345 6.763275
Si 4.015443 9.472340 6.830360
Si 0.035735 8.146368 8.047291
Si 2.716595 5.458057 8.230575
Si 1.364383 9.529164 9.493345
Si 4.077255 6.832898 9.563961
Si 5.506510 0.032797 10.804774
Si 8.105404 2.677657 0.038718
Si 6.797425 1.323682 1.412824
Si 9.509716 4.165165 1.354621
Si 5.383037 2.751066 2.639569
Si 8.236287 0.059454 2.779276
Si 6.720768 4.076113 4.020468
Si 9.549793 1.449354 4.143114
Si 5.360902 10.856540 5.413674
Si 8.111334 2.819262 5.421680
Si 6.790069 1.345980 6.754286
Si 9.572939 4.139765 6.865527
Si 5.409699 2.721258 8.182888
Si 8.142571 10.814792 8.113251
Si 6.813933 4.077723 9.489601
Si 9.401457 1.338597 9.563141
Si 5.441995 5.384835 10.845586
Si 8.188765 8.066665 10.777635
Si 6.800881 6.769432 1.366159
Si 9.384460 9.536711 1.326945
Si 5.466195 8.144962 2.686916
Si 8.167392 5.451786 2.714111
Si 6.823105 9.469866 4.078942
Si 9.591277 6.778437 4.104758
Si 5.372815 5.373028 5.411244
Si 8.160601 8.033435 5.443408
Si 6.730983 6.743338 6.744198
Si 9.530525 9.517889 6.729794
Si 5.413209 8.195870 8.112719
Si 8.165668 5.470721 8.090678
Si 6.787875 9.427683 9.522867
Si 9.556966 6.747960 9.436896
64
Step 3150
Si 10.801452 0.040151 10.824204
Si 2.644809 2.643784 0.041023
Si 1.325749 1.319273 1.314639
Si 4.042404 4.092623 1.273320
Si 0.014142 2.697248 2.679091
Si 2.772357 0.019459 2.673485
Si 1.406413 4.033718 3.990917
Si 4.136862 1.309724 4.078324
Si 10.781625 10.859328 5.454085
Si 2.677736 2.665079 5.403536
Si 1.264465 1.393318 6.851381
Si 4.030748 4.031419 6.754016
Si 10.828892 2.738607 8.185258
Si 2.634237 10.776387 8.105008
Si 1.338388 4.138129 9.571967
Si 4.007079 1.325100 9.470598
Si 0.041556 5.525042 10.840602
Si 2.753735 8.201850 0.044799
Si 1.310848 6.921748 1.367197
Si 4.191411 9.547532 1.362114
Si 0.073379 8.178759 2.828259
Si 2.716030 5.421164 2.672333
Si 1.430977 9.607609 4.071956
Si 4.084877 6.759601 4.040472
Si 0.096928 5.370473 5.431849
Si 2.679783 8.137053 5.391544
Si 1.460615 6.741209 6.838654
Si 4.122610 9.441359 6.750824
Si 0.042284 8.098901 8.148946
Si 2.828581 5.366783 8.166839
Si 1.292825 9.469547 9.553098
Si 4.076421 6.799663 9.520583
Si 5.468803 0.083086 0.012093
Si 8.132138 2.831539 10.857653
Si 6.832136 1.479518 1.411039
Si 9.546301 4.163776 1.368461
Si 5.428614 2.769702 2.762774
Si 8.159952 0.047355 2.758911
Si 6.784004 4.090977 4.118378
Si 9.510231 1.406621 4.051245
Si 5.444006 10.834325 5.403686
Si 8.103424 2.741754 5.395189
Si 6.784322 1.362476 6.680663
Si 9.450492 4.123390 6.797247
Si 5.377531 2.628151 8.073241
Si 8.011751 10.807424 8.072718
Si 6.655882 4.008662 9.529106
Si 9.357791 1.346509 9.465459
Si 5.442855 5.521255 0.023061
Si 8.151327 8.139666 0.021130
Si 6.848036 6.841433 1.476443
Si 9.477979 9.503703 1.380158
Si 5.462463 8.142119 2.756344
Si 8.241234 5.418457 2.730972
Si 6.812301 9.501065 4.146983
Si 9.619189 6.789521 4.160929
Si 5.373281 5.431357 5.456159
Si 8.186810 8.133456 5.366761
Si 6.828530 6.725456 6.705001
Si 9.505130 9.463775 6.827808
Si 5.495758 8.097169 8.080051
Si 8.101926 5.314689 8.200874
Si 6.751176 9.429791 9.478837
Si 9.466407 6.734196 9.451698
64
Step 3200
Si 10.821600 0.037021 10.851659
Si 2.780742 2.708224 10.840652
Si 1.348641 1.391185 1.255113
Si 4.002466 4.058559 1.424498
Si 0.040868 2.684612 2.714323
Si 2.748520 0.011013 2.687450
Si 1.389645 4.136831 4.123287
Si 4.111606 1.393380 4.051719
Si 0.003643 10.854385 5.452762
Si 2.697753 2.672766 5.357264
Si 1.353972 1.306093 6.800269
Si 4.096237 4.053365 6.761540
Si 10.839042 2.646147 8.050238
Si 2.665338 10.844617 8.132490
Si 1.314394 4.068662 9.431521
Si 3.996095 1.276566 9.489967
Si 10.801420 5.357004 10.796619
Si 2.683947 8.117366 10.823773
Si 1.258819 6.801527 1.347103
Si 4.056947 9.497065 1.288878
Si 0.150459 8.193195 2.799270
Si 2.659215 5.434779 2.699454
Si 1.460640 9.628771 4.133153
Si 4.083217 6.751426 4.071197
Si 10.858651 5.426005 5.480439
Si 2.752016 8.169094 5.434295
Si 1.359722 6.779043 6.825793
Si 4.064396 9.481465 6.829605
Si 10.815021 8.069989 8.222751
Si 2.748383 5.374276 8.117705
Si 1.320202 9.502164 9.487615
Si 4.098238 6.765680 9.537393
Si 5.412219 0.053473 0.031118
Si 8.122807 2.769956 10.843765
Si 6.761506 1.399659 1.306808
Si 9.464396 4.064027 1.361636
Si 5.461361 2.758138 2.723735
Si 8.084650 0.007384 2.595397
Si 6.848610 4.108502 4.078536
Si 9.497601 1.273666 4.026335
Si 5.427553 10.791294 5.431565
Si 8.218690 2.666118 5.398081
Si 6.773260 1.364737 6.809721
Si 9.466947 4.032595 6.799838
Si 5.368158 2.653675 8.138206
Si 8.164493 0.031981 8.209222
Si 6.716370 4.079124 9.480073
Si 9.494140 1.431514 9.438335
Si 5.422137 5.427866 0.078134
Si 8.129167 8.255044 0.089872
Si 6.828572 6.802654 1.365597
Si 9.530915 9.535419 1.358434
Si 5.438438 8.140606 2.737696
Si 8.231893 5.430281 2.713980
Si 6.867606 9.512333 4.059264
Si 9.591906 6.808890 4.076309
Si 5.469991 5.463647 5.423753
Si 8.208421 8.186802 5.455955
Si 6.780264 6.849984 6.790623
Si 9.510640 9.484277 6.885045
Si 5.458639 8.107200 8.193360
Si 8.145767 5.349446 8.172218
Si 6.788624 9.546959 9.490304
Si 9.378400 6.842482 9.563278
64
Step 3250
Si 0.078399 10.852732 0.065889
Si 2.732920 2.795399 10.833885
Si 1.399464 1.458629 1.388988
Si 4.066117 4.098911 1.436709
Si 10.859581 2.699297 2.734329
Si 2.724287 0.010730 2.740967
Si 1.297369 4.088885 4.153559
Si 4.071667 1.360160 4.070946
Si 0.079114 10.809600 5.388483
Si 2.829988 2.758895 5.364017
Si 1.468357 1.342658 6.693080
Si 4.128425 4.146733 6.772547
Si 0.038444 2.732015 8.096772
Si 2.759508 10.831093 8.163139
Si 1.363364 4.108912 9.411098
Si 4.120488 1.416797 9.499730
Si 10.827580 5.288190 10.847118
Si 2.632055 8.040425 10.850983
Si 1.336636 6.667963 1.332218
Si 3.920405 9.406868 1.381142
Si 0.011268 8.078688 2.585355
Si 2.664231 5.477726 2.788970
Si 1.364153 9.375521 4.019987
Si 4.082399 6.829991 4.092269
Si 10.783561 5.496791 5.467973
Si 2.769916 8.108413 5.510832
Si 1.307707 6.853488 6.794361
Si 4.122927 9.529495 6.838819
Si 10.795418 8.152921 8.154582
Si 2.639524 5.462596 8.110152
Si 1.330238 9.470860 9.528107
Si 4.042851 6.715501 9.490191
Si 5.312113 10.754228 0.018236
Si 8.119368 2.675321 10.851517
Si 6.726496 1.292105 1.329950
Si 9.477185 4.021942 1.399099
Si 5.451275 2.741179 2.727905
Si 8.181900 10.827276 2.731689
Si 6.861741 4.086727 4.047891
Si 9.567802 1.360325 4.085259
Si 5.471558 0.015701 5.427737
Si 8.153445 2.630182 5.413089
Si 6.776922 1.311583 6.819076
Si 9.462142 4.077855 6.769947
Si 5.480807 2.789495 8.160525
Si 8.231272 0.079285 8.168088
Si 6.827401 4.169416 9.426168
Si 9.606469 1.389582 9.564458
Si 5.436037 5.351790 0.026972
Si 8.120595 8.120768 0.012447
Si 6.695103 6.719904 1.345278
Si 9.480030 9.559381 1.288597
Si 5.363595 8.187856 2.686375
Si 8.175314 5.475416 2.717713
Si 6.753786 9.474759 4.007066
Si 9.469548 6.887330 4.022028
Si 5.531559 5.439208 5.417007
Si 8.112562 8.151463 5.484211
Si 6.728632 6.918473 6.813358
Si 9.515440 9.559612 6.773048
Si 5.387667 8.104673 8.221542
Si 8.140281 5.531814 8.123340
Si 6.817840 9.551739 9.531036
Si 9.499748 6.722739 9.566143
64
Step 3300
Si 0.044145 0.025344 0.024116
Si 2.722798 2.709910 0.038546
Si 1.407643 1.373582 1.477190
Si 4.138433 4.066641 1.327222
Si 0.009473 2.757189 2.766884
Si 2.695290 10.784644 2.738560
Si 1.333476 4.069091 4.134465
Si 4.045426 1.344586 4.101396
Si 0.065008 0.004835 5.455992
Si 2.757371 2.720993 5.514299
Si 1.415561 1.377392 6.755661
Si 4.115904 4.101502 6.766470
Si 0.026752 2.736204 8.120489
Si 2.747928 0.090013 8.189579
Si 1.400936 3.999297 9.480390
Si 4.142351 1.431041 9.519039
Si 10.851981 5.388511 0.005956
Si 2.659661 8.086491 10.841799
Si 1.354934 6.669700 1.419130
Si 4.085711 9.486339 1.337597
Si 10.751345 8.082680 2.671356
Si 2.765878 5.410017 2.792110
Si 1.282522 9.402903 4.000118
Si 4.058269 6.797743 4.125578
Si 10.778987 5.488060 5.344077
Si 2.665776 8.184285 5.421664
Si 1.291579 6.860356 6.716067
Si 4.063673 9.561368 6.789407
Si 10.856243 8.253666 8.141783
Si 2.684548 5.463895 8.081125
Si 1.394860 9.556803 9.459748
Si 4.035675 6.785140 9.482272
Si 5.471864 10.855499 10.827125
Si 8.164140 2.563843 0.049231
Si 6.825022 1.309389 1.372813
Si 9.462635 3.972066 1.377217
Si 5.478331 2.639272 2.664648
Si 8.195419 0.000136 2.753480
Si 6.761904 4.009015 4.067381
Si 9.518869 1.359297 4.122573
Si 5.450436 0.061411 5.453887
Si 8.129711 2.774286 5.469369
Si 6.863184 1.361197 6.793943
Si 9.559809 4.089587 6.795142
Si 5.490655 2.769158 8.129727
Si 8.135948 10.824763 8.199621
Si 6.880228 4.027938 9.548456
Si 9.553285 1.347105 9.547147
Si 5.460874 5.413677 10.838712
Si 8.096981 8.077446 10.759685
Si 6.762418 6.796073 1.329467
Si 9.446224 9.487251 1.281099
Si 5.390065 8.130269 2.700022
Si 8.024124 5.433381 2.711089
Si 6.676342 9.535554 4.029786
Si 9.375500 6.791940 4.055933
Si 5.464377 5.433606 5.416108
Si 8.098125 8.198511 5.414430
Si 6.815012 6.831546 6.787907
Si 9.508279 9.570283 6.725586
Si 5.386832 8.203912 8.151006
Si 8.142185 5.462807 8.140144
Si 6.761074 9.534784 9.572193
Si 9.584006 6.786790 9.458978
64
Step 3350
Si 10.828678 10.829051 10.855177
Si 2.682319 2.684717 0.045520
Si 1.340255 1.245559 1.358858
Si 4.123908 4.057875 1.310314
Si 0.037225 2.759267 2.746091
Si 2.722496 10.847190 2.648393
Si 1.449863 4.089901 4.017608
Si 4.040719 1.294654 4.036500
Si 10.732122 0.039201 5.441652
Si 2.673878 2.685873 5.503946
Si 1.281479 1.385868 6.853664
Si 4.037142 4.071029 6.877408
Si 0.016120 2.734628 8.249402
Si 2.741151 0.066047 8.162577
Si 1.406194 4.037314 9.623430
Si 4.061688 1.396315 9.513299
Si 0.027655 5.503919 0.036618
Si 2.740595 8.161502 0.028226
Si 1.362319 6.814603 1.334088
Si 4.121649 9.510883 1.303949
Si 10.818225 8.137137 2.768842
Si 2.739141 5.402745 2.630166
Si 1.289060 9.631225 4.057555
Si 4.051587 6.764246 4.062922
Si 0.024985 5.433122 5.386155
Si 2.632753 8.223573 5.358835
Si 1.396507 6.739285 6.777361
Si 3.998971 9.518766 6.728321
Si 0.097906 8.145535 8.130265
Si 2.726088 5.454431 8.173866
Si 1.407752 9.549028 9.554381
Si 4.036445 6.872866 9.490823
Si 5.497979 0.009774 10.831841
Si 8.251104 2.741735 0.008190
Si 6.865584 1.383123 1.436205
Si 9.616236 4.110863 1.324574
Si 5.362879 2.666116 2.721832
Si 8.175297 10.810202 2.714869
Si 6.686729 4.055218 4.087209
Si 9.445302 1.367860 4.051625
Si 5.379899 0.029186 5.475088
Si 8.196216 2.817756 5.458869
Si 6.827379 1.426068 6.792963
Si 9.554197 4.093350 6.823142
Si 5.472416 2.699836 8.144915
Si 8.106860 10.825511 8.121759
Si 6.819057 4.028638 9.568626
Si 9.474925 1.288469 9.450489
Si 5.398550 5.480927 10.755194
Si 8.232000 8.166212 10.818851
Si 6.831283 6.819492 1.305068
Si 9.562644 9.416392 1.393956
Si 5.455625 8.113621 2.725539
Si 8.042862 5.329025 2.671699
Si 6.792406 9.573187 4.105244
Si 9.405952 6.706014 4.034073
Si 5.381865 5.481749 5.483483
Si 8.092540 8.157146 5.435252
Si 6.849096 6.702914 6.832438
Si 9.468438 9.428040 6.831006
Si 5.369986 8.147462 8.057455
Si 8.172483 5.381149 8.147995
Si 6.719941 9.446563 9.450259
Si 9.567392 6.793054 9.458073
64
Step 3400
Si 10.811279 10.832701 10.837423
Si 2.744342 2.710819 10.839233
Si 1.306087 1.307829 1.248532
Si 4.061465 4.121681 1.379781
Si 10.849086 2.719466 2.715799
Si 2.681432 0.044718 2.719107
Si 1.409651 4.069501 4.017775
Si 4.066286 1.384931 4.033768
Si 10.773699 0.016009 5.438863
Si 2.648289 2.725190 5.398193
Si 1.300701 1.339000 6.791625
Si 3.985016 4.011178 6.817082
Si 10.834947 2.690508 8.219255
Si 2.666261 10.822837 8.096224
Si 1.366699 4.094974 9.590942
Si 4.091432 1.241225 9.513341
Si 0.027915 5.487610 0.080434
Si 2.810540 8.270805 0.051721
Si 1.388271 6.955993 1.381592
Si 4.196076 9.559429 1.429820
Si 10.831917 8.223174 2.775132
Si 2.741299 5.460147 2.677643
Si 1.318735 9.563385 4.182223
Si 4.125310 6.837069 3.989996
Si 0.097287 5.340278 5.458251
Si 2.781105 8.100926 5.376828
Si 1.432270 6.729721 6.790742
Si 4.020899 9.495874 6.767513
Si 0.058156 8.070125 8.084093
Si 2.716914 5.419510 8.133654
Si 1.330544 9.441619 9.477114
Si 4.131484 6.772169 9.509670
Si 5.468967 10.836782 10.860452
Si 8.134080 2.839812 0.001422
Si 6.738848 1.400844 1.329730
Si 9.537993 4.160213 1.389648
Si 5.394001 2.733392 2.784385
Si 8.067527 0.044925 2.693035
Si 6.761785 4.150620 4.071688
Si 9.488226 1.403699 4.048744
Si 5.426459 10.843596 5.381222
Si 8.120127 2.724576 5.366353
Si 6.717524 1.372948 6.769478
Si 9.531872 4.046983 6.762470
Si 5.401561 2.688204 8.202079
Si 8.131434 10.860255 8.061201
Si 6.790871 4.083216 9.508532
Si 9.421343 1.338299 9.458876
Si 5.443198 5.480372 0.002515
Si 8.124293 8.158585 0.042193
Si 6.817053 6.781666 1.371045
Si 9.519035 9.474642 1.452052
Si 5.527087 8.157912 2.700703
Si 8.204183 5.475215 2.728472
Si 6.886268 9.429458 4.135258
Si 9.583612 6.717368 4.121621
Si 5.314201 5.397165 5.421365
Si 8.164577 8.005059 5.408335
Si 6.721500 6.663895 6.803523
Si 9.488829 9.400634 6.808586
Si 5.460361 8.159965 8.079811
Si 8.179605 5.429772 8.166553
Si 6.789888 9.503510 9.427941
Si 9.484300 6.822024 9.539334
64
Step 3450
Si 0.020046 0.066276 10.821589
Si 2.701953 2.717512 10.814682
Si 1.346557 1.366920 1.263868
Si 3.982664 4.106788 1.340086
Si 10.819417 2.622722 2.632656
Si 2.656792 0.025062 2.760951
Si 1.316795 4.008668 4.040556
Si 4.128295 1.398580 4.061412
Si 0.068130 10.821408 5.410842
Si 2.696201 2.653680 5.399878
Si 1.326714 1.339471 6.784774
Si 4.075156 4.018602 6.763903
Si 10.816914 2.726525 8.138253
Si 2.643740 10.764170 8.114655
Si 1.288826 4.073903 9.490161
Si 4.021469 1.291217 9.502503
Si 0.041772 5.479388 0.017525
Si 2.681461 8.179855 10.830722
Si 1.408715 6.868909 1.392914
Si 4.001710 9.558887 1.372394
Si 10.840080 8.262998 2.615107
Si 2.724467 5.496394 2.727552
Si 1.430857 9.443736 4.083021
Si 4.112289 6.803768 4.104554
Si 10.860352 5.351625 5.493395
Si 2.800237 8.125311 5.474734
Si 1.414674 6.780153 6.833187
Si 4.190085 9.498908 6.828843
Si 10.795684 8.096919 8.188436
Si 2.758207 5.373362 8.218850
Si 1.329233 9.448707 9.490130
Si 4.117667 6.762750 9.550217
Si 5.430824 0.054244 0.015241
Si 8.041171 2.735766 10.844902
Si 6.735054 1.396299 1.296319
Si 9.471697 4.056612 1.325381
Si 5.432411 2.743487 2.698639
Si 8.092475 0.094134 2.722085
Si 6.879233 4.084398 4.064733
Si 9.533528 1.402379 4.077104
Si 5.466339 10.823228 5.377496
Si 8.047577 2.648283 5.430095
Si 6.744716 1.297599 6.736120
Si 9.419114 3.992713 6.818384
Si 5.376790 2.676623 8.132260
Si 8.146839 0.044096 8.124077
Si 6.767070 4.076347 9.450771
Si 9.485755 1.408270 9.542805
Si 5.413540 5.442093 0.049187
Si 8.144254 8.168122 10.845666
Si 6.850399 6.773445 1.363080
Si 9.441079 9.615416 1.366441
Si 5.472817 8.241613 2.711905
Si 8.277392 5.491191 2.780276
Si 6.858619 9.468603 4.110901
Si 9.658987 6.880049 4.178773
Si 5.447823 5.311352 5.417279
Si 8.178475 8.133130 5.451901
Si 6.718551 6.783376 6.784305
Si 9.527658 9.546324 6.757855
Si 5.486227 8.099565 8.195516
Si 8.145640 5.413929 8.155236
Si 6.848077 9.530370 9.494697
Si 9.488703 6.755782 9.564212
64
Step 3500
Si 0.029280 0.059580 10.855745
Si 2.700242 2.720163 0.007348
Si 1.374459 1.386906 1.459843
Si 4.029027 4.094617 1.345172
Si 10.856201 2.761202 2.758837
Si 2.834859 10.791962 2.645076
Si 1.272855 4.096302 4.153892
Si 4.062515 1.363205 4.072769
Si 0.075770 10.812076 5.411091
Si 2.745127 2.728542 5.431991
Si 1.421262 1.347630 6.781771
Si 4.119598 4.098572 6.718781
Si 0.032937 2.709231 8.052504
Si 2.760752 0.007775 8.153802
Si 1.346421 4.102250 9.401425
Si 3.991603 1.424835 9.438692
Si 10.828194 5.401774 10.833512
Si 2.624238 8.058022 10.855739
Si 1.328935 6.626355 1.408147
Si 4.021188 9.418239 1.282607
Si 0.025522 8.166939 2.710000
Si 2.687527 5.418751 2.810930
Si 1.510660 9.468069 4.004837
Si 4.084594 6.754614 4.136962
Si 10.846530 5.542193 5.423005
Si 2.678976 8.075150 5.513282
Si 1.313632 6.772780 6.811047
Si 4.090332 9.415195 6.830058
Si 10.833432 8.147697 8.150260
Si 2.720185 5.436620 8.160014
Si 1.373584 9.533500 9.507194
Si 4.041493 6.759742 9.527148
Si 5.358926 0.066382 10.844483
Si 8.116420 2.713821 10.848978
Si 6.749914 1.333915 1.356301
Si 9.471112 4.041211 1.342159
Si 5.399114 2.756762 2.686525
Si 8.195876 10.824666 2.716049
Si 6.845386 4.068394 3.990414
Si 9.546308 1.296835 4.039410
Si 5.375743 10.837543 5.467063
Si 8.183818 2.715906 5.454278
Si 6.839447 1.325700 6.845295
Si 9.501815 4.153820 6.745087
Si 5.394482 2.677698 8.104536
Si 8.191400 10.836414 8.249723
Si 6.647677 4.039204 9.494872
Si 9.497302 1.409434 9.513213
Si 5.435133 5.472680 0.077677
Si 8.150849 8.177782 10.859610
Si 6.807945 6.831978 1.415162
Si 9.534656 9.524630 1.286763
Si 5.345002 8.094284 2.691143
Si 8.162461 5.461093 2.664141
Si 6.703550 9.519332 3.975044
Si 9.469066 6.834515 4.048267
Si 5.551081 5.477664 5.418670
Si 8.178504 8.297329 5.421267
Si 6.884022 6.885585 6.770388
Si 9.554023 9.561476 6.841409
Si 5.481677 8.090685 8.222607
Si 8.064240 5.380652 8.160534
Si 6.801847 9.491475 9.633707
Si 9.483271 6.746659 9.469737
64
Step 3550
Si 0.025380 10.850329 0.042364
Si 2.684066 2.765428 0.079064
Si 1.384120 1.401257 1.435676
Si 4.147408 4.016639 1.449894
Si 0.009562 2.736120 2.826164
Si 2.761025 10.858157 2.685779
Si 1.394000 4.140370 4.159397
Si 4.083869 1.291464 4.115616
Si 0.016692 0.032115 5.384912
Si 2.786909 2.775752 5.439910
Si 1.397949 1.358100 6.735970
Si 4.176832 4.159920 6.770754
Si 0.016109 2.719435 8.085080
Si 2.779546 0.025418 8.159314
Si 1.388395 4.087324 9.455825
Si 4.075877 1.415526 9.535239
Si 10.791690 5.308990 10.809298
Si 2.701060 8.042192 0.016444
Si 1.238162 6.676880 1.334981
Si 4.070392 9.471119 1.323443
Si 0.055851 8.070258 2.784914
Si 2.675983 5.388526 2.706341
Si 1.326290 9.512308 4.045107
Si 4.070576 6.758881 4.049257
Si 10.723926 5.526020 5.401203
Si 2.698736 8.181529 5.409164
Si 1.289347 6.830782 6.811489
Si 4.041719 9.483756 6.788240
Si 0.019319 8.246831 8.189571
Si 2.681732 5.408854 8.067205
Si 1.359407 9.551412 9.572358
Si 4.007816 6.798532 9.456315
Si 5.415845 10.822054 10.845291
Si 8.182664 2.646465 10.841126
Si 6.777820 1.317503 1.397876
Si 9.504954 4.018747 1.359751
Si 5.473787 2.699435 2.751351
Si 8.169759 10.791880 2.679762
Si 6.749931 4.001553 4.118800
Si 9.449062 1.243363 4.078216
Si 5.431437 0.011693 5.500381
Si 8.218152 2.709561 5.415544
Si 6.853318 1.378803 6.770277
Si 9.471069 4.101405 6.768765
Si 5.525955 2.721147 8.112572
Si 8.147070 0.010179 8.175815
Si 6.786732 4.100033 9.536241
Si 9.559919 1.372249 9.495142
Si 5.403676 5.388165 10.825253
Si 8.184398 8.181688 0.010476
Si 6.708757 6.776288 1.314962
Si 9.627998 9.491843 1.347795
Si 5.385506 8.119253 2.755580
Si 8.073904 5.368372 2.684533
Si 6.736699 9.624704 4.052803
Si 9.331088 6.855024 3.929769
Si 5.530510 5.532778 5.446441
Si 8.088820 8.214224 5.428510
Si 6.871034 6.818812 6.794353
Si 9.513960 9.528280 6.763566
Si 5.409069 8.178189 8.135234
Si 8.104931 5.459371 8.146688
Si 6.796895 9.445519 9.535219
Si 9.495533 6.765205 9.439605
64
Step 3600
Si 0.055671 10.797392 0.035812
Si 2.775601 2.688966 10.833368
Si 1.385626 1.413404 1.355155
Si 4.107836 4.026693 1.396193
Si 0.059510 2.754686 2.696067
Si 2.590021 0.077592 2.782891
Si 1.382924 4.098805 4.074952
Si 4.017660 1.374652 4.130989
Si 10.834542 0.049707 5.463478
Si 2.695993 2.781559 5.448424
Si 1.389469 1.408514 6.812130
Si 4.065441 4.026303 6.916877
Si 0.006742 2.723290 8.191753
Si 2.682450 0.086252 8.203274
Si 1.404006 4.021261 9.530398
Si 4.184880 1.306492 9.585382
Si 10.830892 5.390075 0.010238
Si 2.811497 8.160833 0.005684
Si 1.383485 6.860338 1.287023
Si 4.085452 9.574387 1.421745
Si 10.821755 8.049497 2.696527
Si 2.720032 5.423321 2.691485
Si 1.235056 9.481556 4.113605
Si 4.065373 6.881113 3.974529
Si 10.840770 5.384831 5.453254
Si 2.718221 8.166381 5.369633
Si 1.311336 6.859980 6.692267
Si 3.999264 9.600766 6.774584
Si 0.031420 8.191232 8.167891
Si 2.649267 5.462439 8.077698
Si 1.394536 9.509825 9.520205
Si 4.035571 6.807541 9.483638
Si 5.476437 10.771214 10.832375
Si 8.191123 2.642568 0.000998
Si 6.819690 1.303488 1.279641
Si 9.482853 4.020060 1.404600
Si 5.485343 2.638041 2.711029
Si 8.095758 0.002436 2.679508
Si 6.753968 4.088274 4.120021
Si 9.508281 1.396617 4.072111
Si 5.488264 10.861806 5.438956
Si 8.126842 2.691292 5.414671
Si 6.739097 1.385689 6.817985
Si 9.519520 4.024684 6.850034
Si 5.454200 2.751200 8.251997
Si 8.168911 10.858411 8.083383
Si 6.901112 4.119442 9.592273
Si 9.552584 1.301381 9.466470
Si 5.424841 5.385514 10.767079
Si 8.088556 8.090521 10.843908
Si 6.754721 6.735281 1.282962
Si 9.455781 9.518122 1.291107
Si 5.490613 8.159974 2.660660
Si 8.089772 5.429337 2.665139
Si 6.825934 9.445760 4.122993
Si 9.489789 6.713884 4.062213
Si 5.294667 5.411803 5.408545
Si 8.151557 8.037238 5.441831
Si 6.699990 6.760385 6.797310
Si 9.478020 9.504696 6.760257
Si 5.333865 8.223261 8.144770
Si 8.239973 5.506823 8.158349
Si 6.859332 9.492047 9.415544
Si 9.570308 6.873075 9.548123
64
Step 3650
Si 10.832138 10.784801 0.039773
Si 2.752466 2.717999 10.826127
Si 1.353140 1.305455 1.353042
Si 4.075392 4.122916 1.280801
Si 10.827193 2.706697 2.651900
Si 2.685749 0.041399 2.791692
Si 1.384912 4.061757 3.965494
Si 4.093774 1.420056 4.042956
Si 10.819233 10.852245 5.437549
Si 2.700985 2.656632 5.444247
Si 1.246247 1.354685 6.845186
Si 4.006757 4.042894 6.826678
Si 0.013610 2.762173 8.254259
Si 2.708677 10.848142 8.110300
Si 1.353894 4.104098 9.635377
Si 4.100132 1.320736 9.467405
Si 0.139825 5.583571 0.063728
Si 2.761833 8.231921 0.046420
Si 1.435195 6.903972 1.423641
Si 4.088933 9.557974 1.427787
Si 10.792853 8.163697 2.657382
Si 2.800807 5.496663 2.646087
Si 1.295623 9.525113 3.991165
Si 4.059498 6.802249 4.115468
Si 0.065148 5.338836 5.450924
Si 2.660336 8.168837 5.394666
Si 1.445939 6.751298 6.761674
Si 4.089681 9.515475 6.740867
Si 0.023248 8.086538 8.062118
Si 2.720407 5.480279 8.234132
Si 1.390777 9.479495 9.478831
Si 4.086993 6.836346 9.533680
Si 5.508563 0.021363 0.036314
Si 8.175816 2.748528 0.014314
Si 6.861485 1.373633 1.438594
Si 9.525751 4.170308 1.322698
Si 5.387575 2.730983 2.700685
Si 8.208097 10.853415 2.785199
Si 6.711552 4.101265 4.053178
Si 9.502030 1.464194 4.105657
Si 5.384105 10.852085 5.327709
Si 8.051633 2.747135 5.415144
Si 6.749270 1.351153 6.751898
Si 9.486900 4.074737 6.820993
Si 5.384921 2.729187 8.159016
Si 8.145451 0.001830 8.092910
Si 6.800293 4.086658 9.512382
Si 9.491865 1.271670 9.522301
Si 5.466530 5.452243 10.833739
Si 8.173442 8.086505 10.834659
Si 6.850262 6.833546 1.397908
Si 9.387477 9.516697 1.362341
Si 5.437759 8.206045 2.723717
Si 8.137232 5.377306 2.762706
Si 6.847076 9.397971 4.112471
Si 9.615000 6.699735 4.128706
Si 5.342242 5.394206 5.457674
Si 8.136407 8.034018 5.443173
Si 6.711326 6.688360 6.781344
Si 9.483651 9.417169 6.751109
Si 5.420599 8.070539 8.029710
Si 8.128473 5.418019 8.128660
Si 6.718290 9.486044 9.397147
Si 9.541530 6.764516 9.516575
64
Step 3700
Si 10.790302 0.050203 10.764138
Si 2.695954 2.712421 10.861165
Si 1.259759 1.310616 1.293822
Si 4.050543 4.140911 1.263727
Si 10.832364 2.703345 2.734541
Si 2.778034 10.833729 2.602786
Si 1.400706 4.008119 4.053725
Si 4.109508 1.392626 4.020421
Si 10.811292 10.858408 5.458697
Si 2.620063 2.610664 5.430207
Si 1.302069 1.330528 6.815454
Si 3.980925 4.014412 6.741252
Si 10.797703 2.683452 8.173792
Si 2.722175 10.793716 8.067186
Si 1.327701 4.094513 9.516040
Si 3.978647 1.325409 9.449356
Si 0.020160 5.502718 10.855061
Si 2.685813 8.278904 10.857263
Si 1.377355 6.828354 1.449086
Si 4.216362 9.546633 1.310942
Si 10.858794 8.253502 2.819583
Si 2.711162 5.429484 2.754401
Si 1.431305 9.639157 4.093789
Si 4.061102 6.725830 4.143786
Si 0.068715 5.387863 5.383961
Si 2.660756 8.151578 5.447182
Si 1.386854 6.669657 6.859410
Si 4.072793 9.432275 6.763211
Si 0.003441 8.097951 8.118279
Si 2.814261 5.387223 8.263032
Si 1.312471 9.478022 9.441289
Si 4.121109 6.798307 9.543180
Si 5.499041 0.104315 10.848077
Si 8.131728 2.773693 0.029262
Si 6.799366 1.415868 1.371872
Si 9.561799 4.128141 1.331741
Si 5.383813 2.775116 2.657595
Si 8.180410 0.018792 2.766363
Si 6.820519 4.106843 4.025652
Si 9.530879 1.390256 4.076058
Si 5.412820 0.001658 5.434026
Si 8.146341 2.755782 5.464400
Si 6.813180 1.313409 6.765270
Si 9.550618 4.067279 6.764191
Si 5.405910 2.613250 8.051882
Si 8.093523 10.820602 8.188708
Si 6.666700 3.990710 9.467385
Si 9.400070 1.395259 9.545628
Si 5.489187 5.471544 0.054753
Si 8.192956 8.170027 10.849942
Si 6.868612 6.872727 1.412856
Si 9.513461 9.497326 1.381434
Si 5.449332 8.135133 2.725523
Si 8.184661 5.444999 2.758053
Si 6.772858 9.531178 4.066405
Si 9.539670 6.761691 4.104302
Si 5.404973 5.381052 5.450557
Si 8.177947 8.168406 5.396272
Si 6.857609 6.766911 6.801146
Si 9.504865 9.481358 6.862209
Si 5.558629 8.119209 8.136784
Si 8.104877 5.283905 8.204388
Si 6.726515 9.595416 9.547477
Si 9.442926 6.761629 9.418013
64
Step 3750
Si 0.060009 0.100955 10.824611
Si 2.641522 2.721675 0.002512
Si 1.375857 1.374697 1.292477
Si 4.024278 4.059170 1.408251
Si 0.037810 2.673408 2.704697
Si 2.724665 0.011731 2.666600
Si 1.351108 4.058449 4.125316
Si 4.109704 1.299919 4.046788
Si 0.020813 10.819459 5.439940
Si 2.749836 2.670130 5.370911
Si 1.429253 1.345731 6.793213
Si 4.128304 4.043946 6.729221
Si 10.823577 2.713135 8.123494
Si 2.682520 10.779526 8.171417
Si 1.345852 4.072325 9.400202
Si 3.975561 1.390023 9.527628
Si 10.808023 5.379973 10.844983
Si 2.700281 8.081510 10.832268
Si 1.302615 6.780771 1.258200
Si 3.981812 9.464106 1.337170
Si 0.117455 8.215209 2.737680
Si 2.593970 5.482791 2.731721
Si 1.460566 9.486736 4.163427
Si 4.097450 6.739085 4.089466
Si 10.823428 5.516185 5.455794
Si 2.818209 8.089616 5.449125
Si 1.359935 6.794846 6.836119
Si 4.119925 9.414058 6.826302
Si 10.825403 8.123250 8.217973
Si 2.767892 5.385160 8.121863
Si 1.350426 9.438606 9.592465
Si 4.089427 6.746430 9.478107
Si 5.376640 10.842654 10.813138
Si 8.066246 2.790764 0.033135
Si 6.709101 1.394222 1.336659
Si 9.527933 4.084851 1.383663
Si 5.451343 2.787559 2.740658
Si 8.085185 0.016173 2.621847
Si 6.860487 4.092896 4.085093
Si 9.512389 1.246374 4.014418
Si 5.442983 10.803478 5.461956
Si 8.231295 2.715482 5.416067
Si 6.751413 1.368641 6.729704
Si 9.469350 4.080931 6.769804
Si 5.424443 2.648839 8.133015
Si 8.133558 0.026692 8.144020
Si 6.721639 4.040978 9.469676
Si 9.480073 1.455812 9.535653
Si 5.343061 5.438303 0.025865
Si 8.218193 8.168540 0.092365
Si 6.739968 6.772463 1.326429
Si 9.624443 9.474401 1.406990
Si 5.433555 8.114748 2.701576
Si 8.180885 5.510547 2.716385
Si 6.781255 9.569146 4.025853
Si 9.512891 6.969784 4.040251
Si 5.473198 5.424792 5.399718
Si 8.122746 8.209240 5.455759
Si 6.806082 6.845015 6.775310
Si 9.475450 9.539270 6.806786
Si 5.497240 8.126941 8.231598
Si 8.115530 5.451099 8.128366
Si 6.858779 9.535402 9.601700
Si 9.459157 6.765364 9.560594
64
Step 3800
Si 0.058038 0.058697 0.017476
Si 2.725291 2.730445 10.841498
Si 1.439370 1.395178 1.450402
Si 4.038622 4.022282 1.455296
Si 0.001321 2.774219 2.773654
Si 2.746546 0.011603 2.834428
Si 1.242256 4.158907 4.151479
Si 4.094810 1.352077 4.106237
Si 0.083920 10.847652 5.435404
Si 2.755327 2.794048 5.411076
Si 1.421073 1.345584 6.738593
Si 4.172601 4.076293 6.752831
Si 0.033955 2.692798 8.035917
Si 2.712978 0.044619 8.216496
Si 1.345482 4.036712 9.407728
Si 4.117442 1.325387 9.513839
Si 10.805761 5.314451 10.844950
Si 2.711587 7.995358 10.834666
Si 1.304779 6.669578 1.347460
Si 3.947884 9.446549 1.391701
Si 10.846617 8.143773 2.579594
Si 2.692551 5.367301 2.745466
Si 1.369631 9.373755 4.092291
Si 4.077360 6.796842 3.980854
Si 10.795164 5.515787 5.473897
Si 2.812637 8.108557 5.483552
Si 1.316813 6.898848 6.784273
Si 4.109502 9.553267 6.890827
Si 10.830069 8.181301 8.153990
Si 2.636351 5.426741 7.951849
Si 1.362683 9.526581 9.534100
Si 4.053697 6.708413 9.424343
Si 5.355189 10.749916 0.024900
Si 8.114300 2.681612 10.847909
Si 6.730122 1.300066 1.334595
Si 9.417592 4.010580 1.413172
Si 5.457558 2.706134 2.778156
Si 8.120886 0.055639 2.633693
Si 6.811859 4.047265 4.093890
Si 9.543893 1.295598 4.074309
Si 5.446988 10.839417 5.416066
Si 8.209087 2.679672 5.382744
Si 6.814442 1.393739 6.804690
Si 9.468477 4.098925 6.749395
Si 5.434606 2.763685 8.202226
Si 8.188357 0.082393 8.159475
Si 6.837872 4.152844 9.510859
Si 9.560649 1.392387 9.482234
Si 5.378408 5.384631 0.035369
Si 8.089883 8.137889 0.047672
Si 6.717557 6.686652 1.339831
Si 9.470767 9.527303 1.329302
Si 5.379987 8.130268 2.663927
Si 8.183652 5.477644 2.720129
Si 6.800612 9.457884 3.979597
Si 9.510944 6.843958 4.070130
Si 5.516571 5.478631 5.371467
Si 8.147743 8.210780 5.443619
Si 6.760862 6.836479 6.782005
Si 9.509562 9.588052 6.796888
Si 5.418481 8.200900 8.216574
Si 8.143808 5.518975 8.120149
Si 6.861629 9.508438 9.529803
Si 9.519534 6.790055 9.573044
64
Step 3850
Si 0.004492 10.821038 0.045236
Si 2.734374 2.681183 0.037118
Si 1.337394 1.339045 1.441511
Si 4.105882 4.061470 1.275110
Si 10.860532 2.720177 2.720409
Si 2.749538 10.858002 2.715944
Si 1.362028 4.114203 4.085217
Si 4.073041 1.358735 4.122633
Si 0.022959 10.849351 5.372060
Si 2.711537 2.755386 5.462742
Si 1.348762 1.369507 6.760214
Si 4.060535 4.169321 6.802750
Si 0.045713 2.748657 8.122382
Si 2.764768 0.015351 8.153089
Si 1.401630 4.018929 9.605349
Si 4.158483 1.391013 9.502776
Si 0.036338 5.378732 10.812873
Si 2.650150 8.102154 10.852597
Si 1.359787 6.704226 1.378135
Si 4.087198 9.435868 1.304798
Si 10.758836 8.097659 2.669100
Si 2.821302 5.367751 2.678665
Si 1.283525 9.525548 3.924845
Si 4.011321 6.834806 4.104552
Si 10.844700 5.476478 5.422420
Si 2.601996 8.280926 5.418472
Si 1.397833 6.825583 6.812927
Si 4.075460 9.603599 6.748362
Si 0.016714 8.223220 8.178969
Si 2.702627 5.406217 8.198844
Si 1.339049 9.600660 9.483108
Si 4.010971 6.825919 9.557447
Si 5.406955 0.022358 0.087017
Si 8.186655 2.618471 10.808555
Si 6.865854 1.294872 1.384756
Si 9.505814 4.018391 1.305569
Si 5.442296 2.619234 2.686390
Si 8.215761 10.829713 2.781665
Si 6.735402 4.034247 4.108572
Si 9.536629 1.441301 4.122909
Si 5.524096 0.050741 5.456984
Si 8.076431 2.680727 5.474557
Si 6.826204 1.354946 6.837904
Si 9.478693 4.096822 6.849963
Si 5.462385 2.796641 8.125557
Si 8.157720 0.023437 8.200734
Si 6.836066 4.075059 9.509150
Si 9.574074 1.278623 9.498928
Si 5.505262 5.409530 10.810836
Si 8.065756 8.153198 10.740892
Si 6.831361 6.748522 1.356930
Si 9.426058 9.526182 1.281401
Si 5.377486 8.161155 2.760495
Si 8.118102 5.322647 2.700464
Si 6.731765 9.480960 4.109733
Si 9.408148 6.732581 4.035513
Si 5.468569 5.462076 5.494893
Si 8.171141 8.172130 5.386887
Si 6.790851 6.820817 6.769589
Si 9.525344 9.495371 6.787457
Si 5.348605 8.139088 8.098009
Si 8.159346 5.470059 8.194250
Si 6.697564 9.478668 9.431575
Si 9.526126 6.814728 9.477195
64
Step 3900
Si 10.772824 10.767347 0.033574
Si 2.802731 2.700264 0.031705
Si 1.305294 1.340124 1.269435
Si 4.174679 4.130277 1.339745
Si 0.050260 2.708772 2.712748
Si 2.659111 10.812129 2.674159
Si 1.483359 4.075585 4.040730
Si 4.023719 1.400084 4.027406
Si 10.793844 0.047243 5.436119
Si 2.697837 2.674672 5.426585
Si 1.314854 1.386629 6.818955
Si 3.966098 4.103183 6.814652
Si 10.824656 2.743072 8.202412
Si 2.730312 0.037774 8.074986
Si 1.372723 4.090541 9.595159
Si 4.075212 1.373539 9.501074
Si 0.035771 5.507942 0.007838
Si 2.773724 8.195316 0.051129
Si 1.392381 6.865494 1.391419
Si 4.225288 9.551826 1.371095
Si 10.848896 8.039420 2.808671
Si 2.763870 5.477977 2.704741
Si 1.289892 9.560806 4.031503
Si 4.030775 6.815959 4.112149
Si 0.073494 5.379392 5.428466
Si 2.619916 8.130224 5.353228
Si 1.350615 6.719549 6.773451
Si 3.960058 9.451139 6.670236
Si 0.063206 8.145560 8.135119
Si 2.703211 5.500105 8.304374
Si 1.413483 9.523087 9.467122
Si 4.036981 6.880917 9.588358
Si 5.472397 0.077993 0.004954
Si 8.210092 2.705058 0.045679
Si 6.809122 1.375773 1.374153
Si 9.581335 4.108422 1.322556
Si 5.452428 2.689977 2.703664
Si 8.180978 10.821561 2.762661
Si 6.729076 4.099294 4.056744
Si 9.425048 1.429790 4.079150
Si 5.392994 0.043025 5.415491
Si 8.129937 2.826164 5.497376
Si 6.798699 1.375655 6.805027
Si 9.650249 4.100043 6.855690
Si 5.404109 2.719597 8.106320
Si 8.141577 10.739549 8.123633
Si 6.810202 4.017821 9.533132
Si 9.459434 1.294088 9.462099
Si 5.477222 5.480801 10.833091
Si 8.110603 8.136543 10.845619
Si 6.835592 6.836788 1.340925
Si 9.508787 9.438841 1.375154
Si 5.441438 8.130105 2.796743
Si 8.035513 5.345649 2.667710
Si 6.772700 9.515315 4.119981
Si 9.486479 6.636927 4.043017
Si 5.361153 5.436309 5.469767
Si 8.162801 8.063434 5.436889
Si 6.754884 6.774128 6.785430
Si 9.554483 9.444461 6.721541
Si 5.371097 8.122756 8.075467
Si 8.190366 5.372910 8.117886
Si 6.748881 9.448244 9.427425
Si 9.495241 6.841039 9.456673
64
Step 3950
Si 10.824801 10.828029 10.856272
Si 2.684351 2.757532 10.832220
Si 1.397102 1.360371 1.255007
Si 4.075122 4.061348 1.386634
Si 10.852742 2.679485 2.654721
Si 2.639248 0.024351 2.724230
Si 1.351990 3.987057 3.970232
Si 4.055004 1.314350 4.040185
Si 10.785000 0.076110 5.461873
Si 2.723358 2.661802 5.423139
Si 1.334854 1.335409 6.815202
Si 4.072885 3.941855 6.871380
Si 10.816397 2.703706 8.251034
Si 2.657139 0.002264 8.176767
Si 1.311809 4.161298 9.492710
Si 4.008304 1.345384 9.499310
Si 10.841093 5.536892 0.066873
Si 2.857158 8.255071 10.858508
Si 1.389681 6.918421 1.322280
Si 4.092313 9.640910 1.426686
Si 0.030841 8.166625 2.772610
Si 2.660911 5.482009 2.669664
Si 1.377470 9.531579 4.163780
Si 4.157040 6.750842 4.033183
Si 0.061493 5.322615 5.426919
Si 2.792518 8.066908 5.420686
Si 1.327475 6.774902 6.795707
Si 4.071160 9.497212 6.795830
Si 10.858309 8.128562 8.139795
Si 2.718922 5.433775 8.078854
Si 1.392954 9.462264 9.536509
Si 4.124498 6.803572 9.468686
Si 5.477717 10.855731 10.799071
Si 8.157469 2.768806 10.860236
Si 6.769393 1.416405 1.326299
Si 9.532129 4.096448 1.411919
Si 5.414555 2.773686 2.749931
Si 8.082356 0.021980 2.731997
Si 6.829849 4.119634 4.085840
Si 9.482350 1.348708 4.006524
Si 5.366013 10.824138 5.402469
Si 8.172702 2.704727 5.393474
Si 6.719715 1.358503 6.691150
Si 9.487654 4.009759 6.841098
Si 5.449482 2.651413 8.181041
Si 8.078053 10.839514 8.010376
Si 6.791325 4.064072 9.460933
Si 9.416232 1.329586 9.502542
Si 5.416981 5.421582 10.850789
Si 8.183506 8.133506 0.104363
Si 6.763389 6.808088 1.332700
Si 9.556394 9.555461 1.380619
Si 5.493479 8.216173 2.707364
Si 8.181736 5.479570 2.748815
Si 6.887854 9.523233 4.100356
Si 9.570291 6.779824 4.177238
Si 5.349410 5.357777 5.436790
Si 8.083176 8.035197 5.459486
Si 6.752437 6.712591 6.821885
Si 9.465844 9.465498 6.778086
Si 5.467129 8.196905 8.121266
Si 8.125488 5.422264 8.177249
Si 6.922799 9.507298 9.444116
Si 9.517144 6.773422 9.524480
64
Step 4000
Si 0.000805 0.045567 10.809525
Si 2.616776 2.768011 10.787778
Si 1.420597 1.369581 1.370219
Si 3.974624 4.051338 1.354250
Si 10.813499 2.739362 2.683989
Si 2.796928 0.014524 2.753831
Si 1.276127 4.062708 4.110145
Si 4.097178 1.375347 4.101478
Si 0.089011 10.762165 5.439018
Si 2.625493 2.721822 5.452780
Si 1.345446 1.321007 6.786182
Si 4.083503 4.072478 6.740221
Si 0.008866 2.733025 8.101189
Si 2.707348 10.832557 8.181966
Si 1.303541 4.090777 9.430926
Si 4.100707 1.308857 9.559959
Si 0.020792 5.444656 0.016288
Si 2.662912 8.111294 10.801636
Si 1.395014 6.804663 1.414231
Si 3.989962 9.461959 1.291902
Si 0.019641 8.270626 2.712218
Si 2.719536 5.397951 2.753900
Si 1.458623 9.437652 4.126581
Si 4.118655 6.744825 4.061403
Si 10.830002 5.425592 5.454043
Si 2.793186 8.140991 5.500039
Si 1.418095 6.792479 6.778520
Si 4.150897 9.516874 6.884560
Si 10.824323 8.110074 8.129083
Si 2.739341 5.356659 8.080729
Si 1.289348 9.456866 9.523016
Si 4.098875 6.710281 9.436001
Si 5.458052 10.833819 0.011116
Si 8.099147 2.736916 10.829734
Si 6.739329 1.402229 1.325376
Si 9.407425 4.126024 1.337325
Si 5.385582 2.786758 2.679829
Si 8.060580 0.053488 2.655819
Si 6.837890 4.068663 4.037307
Si 9.583998 1.296444 4.070774
Si 5.458032 10.788405 5.411806
Si 8.155026 2.650184 5.366264
Si 6.819074 1.315272 6.744533
Si 9.392064 4.041036 6.725473
Si 5.396284 2.668860 8.152546
Si 8.113854 0.040067 8.216184
Si 6.734883 4.109525 9.524928
Si 9.559630 1.456990 9.531428
Si 5.378412 5.407481 0.035236
Si 8.156640 8.165397 0.051869
Si 6.776682 6.776751 1.376582
Si 9.558047 9.579764 1.338088
Si 5.396599 8.104651 2.587032
Si 8.251065 5.559155 2.786185
Si 6.819834 9.468462 3.976587
Si 9.578231 6.892508 4.105057
Si 5.445808 5.385510 5.360316
Si 8.170296 8.191315 5.450841
Si 6.805617 6.745085 6.806130
Si 9.467668 9.539966 6.858493
Si 5.481230 8.125736 8.248788
Si 8.130510 5.481778 8.184685
Si 6.811114 9.567634 9.578255
Si 9.503737 6.765574 9.591799
64
Step 4050
Si 0.026954 0.073366 0.007250
Si 2.696252 2.652079 0.032165
Si 1.337467 1.362419 1.498081
Si 4.015396 4.071792 1.330941
Si 10.855740 2.707507 2.752149
Si 2.775710 0.007051 2.679537
Si 1.284410 4.114374 4.168943
Si 4.112318 1.338492 4.112105
Si 0.071376 10.766480 5.407382
Si 2.732238 2.714677 5.398321
Si 1.398909 1.329728 6.795961
Si 4.110840 4.134059 6.661444
Si 0.002914 2.722761 7.999658
Si 2.790489 10.820622 8.143429
Si 1.357230 4.019162 9.495058
Si 4.094340 1.419730 9.431189
Si 10.826567 5.349749 10.842193
Si 2.519541 8.040947 0.026347
Si 1.303814 6.667823 1.378528
Si 3.988401 9.365273 1.280400
Si 0.034636 8.179325 2.640937
Si 2.664466 5.383642 2.820632
Si 1.438651 9.506484 4.075752
Si 4.055312 6.782070 4.124156
Si 10.780481 5.563357 5.470444
Si 2.734085 8.201664 5.512413
Si 1.378867 6.806402 6.792534
Si 4.163545 9.485293 6.800880
Si 10.848975 8.130766 8.174958
Si 2.747594 5.397325 8.163012
Si 1.341485 9.533540 9.465132
Si 4.032141 6.738511 9.499337
Si 5.346512 0.006361 0.013275
Si 8.104297 2.767726 0.007761
Si 6.803579 1.314591 1.423612
Si 9.543424 4.045779 1.370020
Si 5.402792 2.677648 2.713978
Si 8.167731 10.845039 2.711000
Si 6.798087 4.043418 4.016579
Si 9.558896 1.317337 4.140359
Si 5.524379 0.041111 5.434030
Si 8.149706 2.694237 5.427061
Si 6.846781 1.355489 6.898143
Si 9.436205 4.165330 6.689139
Si 5.411055 2.744078 8.050608
Si 8.199822 10.851134 8.252347
Si 6.716250 4.050354 9.441390
Si 9.575875 1.449255 9.533645
Si 5.407311 5.433073 0.003251
Si 8.166392 8.170617 10.835385
Si 6.769445 6.771026 1.379257
Si 9.512997 9.515969 1.326941
Si 5.384516 8.050659 2.697259
Si 8.163215 5.450488 2.716910
Si 6.706275 9.500875 4.006239
Si 9.440304 6.876950 3.975456
Si 5.586536 5.513799 5.428055
Si 8.160732 8.311801 5.416611
Si 6.894431 6.881553 6.789614
Si 9.531851 9.547813 6.806648
Si 5.451894 8.043947 8.198164
Si 8.109264 5.450493 8.092378
Si 6.709575 9.519943 9.602641
Si 9.482720 6.789652 9.480962
64
Step 4100
Si 10.847572 0.016000 10.856410
Si 2.805435 2.708882 0.036804
Si 1.315295 1.365227 1.363186
Si 4.124904 4.089232 1.448644
Si 0.059555 2.667755 2.818863
Si 2.642929 10.780833 2.700592
Si 1.411424 4.122207 4.114814
Si 4.051422 1.327071 4.036271
Si 10.840406 0.085296 5.451870
Si 2.823667 2.700460 5.411497
Si 1.410996 1.448486 6.856149
Si 4.112265 4.102601 6.803186
Si 0.022899 2.650449 8.165977
Si 2.756945 0.026807 8.107039
Si 1.407036 4.021544 9.484018
Si 4.067985 1.395982 9.500861
Si 10.815849 5.303738 10.838154
Si 2.734492 8.157633 0.067937
Si 1.280795 6.762910 1.265202
Si 4.130162 9.577023 1.379364
Si 10.826494 8.072045 2.692371
Si 2.690792 5.452174 2.672630
Si 1.261186 9.485080 4.073198
Si 4.054277 6.804249 4.053537
Si 10.841923 5.477034 5.405846
Si 2.704684 8.113115 5.405516
Si 1.284002 6.813763 6.829355
Si 4.087080 9.500208 6.738040
Si 0.024247 8.215014 8.186171
Si 2.657877 5.472019 8.159753
Si 1.443851 9.568971 9.553506
Si 4.038445 6.743020 9.486290
Si 5.407084 10.835980 10.819134
Si 8.142931 2.635857 10.849632
Si 6.806174 1.285513 1.335395
Si 9.515880 3.967220 1.388312
Si 5.508139 2.640077 2.727682
Si 8.198150 10.854653 2.680392
Si 6.751941 4.096884 4.093228
Si 9.401124 1.355509 4.112672
Si 5.437409 0.061161 5.471657
Si 8.117548 2.782469 5.481302
Si 6.841404 1.368456 6.828671
Si 9.622369 4.114075 6.828629
Si 5.478101 2.772384 8.132761
Si 8.196553 10.847698 8.151158
Si 6.842384 4.077418 9.536307
Si 9.447801 1.324389 9.485772
Si 5.417286 5.382546 10.843845
Si 8.153783 8.153317 10.815682
Si 6.714887 6.763778 1.309996
Si 9.422694 9.448514 1.355614
Si 5.441420 8.204262 2.728866
Si 8.066136 5.365545 2.637560
Si 6.773078 9.529699 4.080649
Si 9.403004 6.753879 4.010872
Si 5.428581 5.496814 5.440361
Si 8.162494 8.173493 5.399234
Si 6.792854 6.863467 6.766591
Si 9.550859 9.538082 6.796995
Si 5.387381 8.190217 8.149003
Si 8.144680 5.418381 8.129426
Si 6.783025 9.451309 9.505433
Si 9.511942 6.804140 9.452103
64
Step 4150
Si 0.082859 10.778965 0.053681
Si 2.729875 2.724387 0.001547
Si 1.359866 1.352291 1.290690
Si 4.122465 4.027154 1.386056
Si 0.020228 2.746127 2.677689
Si 2.626721 10.842812 2.805786
Si 1.442020 4.041905 3.991913
Si 4.014356 1.365256 4.052080
Si 10.811285 0.051914 5.440307
Si 2.737036 2.781064 5.446954
Si 1.361351 1.425031 6.756187
Si 4.073335 4.075328 6.929068
Si 0.081670 2.697686 8.237934
Si 2.702526 0.049946 8.153640
Si 1.367320 4.133805 9.603207
Si 4.078702 1.351310 9.589536
Si 0.000086 5.475428 0.047894
Si 2.860792 8.226850 10.832027
Si 1.404600 6.865876 1.295871
Si 4.082650 9.608983 1.408065
Si 10.793551 8.067802 2.747588
Si 2.752018 5.488133 2.605870
Si 1.183217 9.463610 4.041860
Si 4.061753 6.859327 3.990641
Si 0.053755 5.300970 5.403309
Si 2.614583 8.142133 5.279727
Si 1.325974 6.795798 6.757349
Si 3.933083 9.532407 6.733346
Si 0.047991 8.209817 8.197935
Si 2.665299 5.500382 8.147422
Si 1.398577 9.523294 9.566015
Si 4.078250 6.815419 9.486829
Si 5.499912 10.824976 10.823179
Si 8.213223 2.653828 0.020246
Si 6.772361 1.357445 1.312011
Si 9.469634 4.070007 1.369665
Si 5.439205 2.722392 2.742002
Si 8.220651 0.015516 2.737934
Si 6.757956 4.102971 4.170327
Si 9.519769 1.458091 4.063772
Si 5.368725 10.811940 5.391682
Si 8.139038 2.755192 5.445780
Si 6.698133 1.419242 6.689098
Si 9.539358 4.035443 6.914996
Si 5.485063 2.742201 8.251155
Si 8.085676 0.045941 8.031865
Si 6.915749 4.145212 9.542437
Si 9.476958 1.167126 9.465976
Si 5.415507 5.445484 10.856936
Si 8.153015 8.077527 10.824682
Si 6.777761 6.779121 1.348313
Si 9.432081 9.426309 1.356401
Si 5.481245 8.236926 2.730713
Si 8.098673 5.393677 2.679697
Si 6.871722 9.507116 4.156804
Si 9.528927 6.659568 4.138534
Si 5.281144 5.431673 5.418180
Si 8.175284 7.985260 5.439325
Si 6.687264 6.747149 6.791871
Si 9.497161 9.437753 6.772643
Si 5.373321 8.194260 8.055483
Si 8.216942 5.463495 8.186556
Si 6.825095 9.402467 9.374969
Si 9.575646 6.747497 9.522734
64
Step 4200
Si 10.861085 10.820629 0.015967
Si 2.700514 2.690134 10.846486
Si 1.353593 1.289832 1.301206
Si 4.118821 4.082811 1.243485
Si 10.835865 2.780821 2.626783
Si 2.787151 0.071891 2.720641
Si 1.374271 4.071602 4.027926
Si 4.093514 1.395477 4.107688
Si 10.815639 10.819197 5.466452
Si 2.637923 2.712294 5.494230
Si 1.255823 1.276414 6.792001
Si 4.001100 4.056667 6.799788
Si 10.845308 2.737153 8.177635
Si 2.718673 0.053060 8.148354
Si 1.302379 4.093694 9.501573
Si 4.155483 1.319374 9.506887
Si 0.072736 5.564217 0.044922
Si 2.751443 8.181361 10.842765
Si 1.470095 6.879708 1.456035
Si 4.116263 9.514747 1.345619
Si 10.793810 8.147448 2.748180
Si 2.763785 5.416854 2.732076
Si 1.338326 9.571767 4.045458
Si 4.097736 6.813104 4.091083
Si 0.024676 5.347786 5.499586
Si 2.630909 8.160310 5.417912
Si 1.374926 6.736270 6.737036
Si 3.996034 9.506659 6.725429
Si 0.021567 8.090952 8.037984
Si 2.735267 5.410084 8.176473
Si 1.310731 9.520939 9.441272
Si 4.118804 6.883802 9.521861
Si 5.571790 0.063588 0.068671
Si 8.187540 2.710548 10.834036
Si 6.827047 1.401333 1.384848
Si 9.487158 4.153086 1.314478
Si 5.406327 2.726516 2.688972
Si 8.135068 10.852924 2.805076
Si 6.741412 4.061925 4.087973
Si 9.560949 1.388871 4.060893
Si 5.421368 10.827492 5.345591
Si 8.127071 2.679381 5.418353
Si 6.716320 1.336078 6.802021
Si 9.430141 3.982772 6.817598
Si 5.411249 2.692090 8.158442
Si 8.144929 0.008594 8.165723
Si 6.771605 4.004834 9.511388
Si 9.478762 1.297659 9.440368
Si 5.515961 5.496510 10.849112
Si 8.098300 8.153622 10.860101
Si 6.867040 6.854385 1.418516
Si 9.474381 9.507855 1.399319
Si 5.472771 8.155154 2.691818
Si 8.156948 5.428683 2.770226
Si 6.806920 9.510592 4.077780
Si 9.559792 6.718414 4.188192
Si 5.393262 5.425238 5.464197
Si 8.127651 8.117796 5.443711
Si 6.801758 6.707173 6.789012
Si 9.415303 9.467262 6.785613
Si 5.400882 8.135650 8.039844
Si 8.179161 5.368414 8.192689
Si 6.754534 9.525563 9.419751
Si 9.528340 6.806952 9.510887
64
Step 4250
Si 10.854610 0.034235 10.836079
Si 2.696377 2.756457 10.858533
Si 1.341119 1.357657 1.326744
Si 4.008288 4.137253 1.321116
Si 0.019705 2.706062 2.731029
Si 2.748458 0.016743 2.588051
Si 1.289507 4.076269 4.103059
Si 4.093005 1.369559 4.013875
Si 0.001279 10.857678 5.415407
Si 2.655743 2.587434 5.395482
Si 1.341092 1.257578 6.818278
Si 4.025592 4.038576 6.684366
Si 10.800501 2.739300 8.137309
Si 2.724548 10.751679 8.155488
Si 1.382020 4.040976 9.469905
Si 4.036000 1.339852 9.419538
Si 0.033542 5.436247 10.808555
Si 2.639555 8.128439 0.040111
Si 1.305929 6.789785 1.405350
Si 4.087147 9.505306 1.318535
Si 0.083216 8.210038 2.734690
Si 2.694399 5.408557 2.781518
Si 1.506447 9.582942 4.070099
Si 4.090338 6.713900 4.162049
Si 10.795710 5.476759 5.440671
Si 2.813363 8.149900 5.525375
Si 1.399660 6.749168 6.820358
Si 4.154765 9.485333 6.822968
Si 10.813552 8.067367 8.124221
Si 2.768482 5.357779 8.201220
Si 1.307120 9.455442 9.435940
Si 4.093814 6.837033 9.565302
Si 5.440198 0.066418 0.039459
Si 8.129184 2.837088 0.050762
Si 6.804917 1.357392 1.371972
Si 9.609838 4.137768 1.346746
Si 5.420639 2.804711 2.682044
Si 8.126148 10.844164 2.703612
Si 6.824847 4.087063 4.012061
Si 9.508382 1.333875 4.059160
Si 5.427407 0.066750 5.458694
Si 8.118127 2.673135 5.407848
Si 6.845718 1.288462 6.829468
Si 9.420190 4.033403 6.690002
Si 5.353634 2.647957 8.073554
Si 8.183263 10.843325 8.267468
Si 6.679835 4.035915 9.458500
Si 9.456405 1.487258 9.542440
Si 5.458086 5.425093 10.836651
Si 8.166070 8.196926 0.033945
Si 6.862095 6.806016 1.330308
Si 9.601835 9.570892 1.373643
Si 5.361723 8.032213 2.688353
Si 8.214442 5.426850 2.758576
Si 6.706296 9.507478 3.990952
Si 9.493191 6.890827 4.007714
Si 5.541996 5.378541 5.472566
Si 8.071235 8.198057 5.433603
Si 6.870364 6.797660 6.835586
Si 9.518514 9.516687 6.820340
Si 5.460025 8.103093 8.203323
Si 8.115823 5.411606 8.157412
Si 6.738435 9.517796 9.611511
Si 9.450245 6.838291 9.504496
64
Step 4300
Si 0.015680 0.072762 10.827785
Si 2.729353 2.777399 10.834233
Si 1.387263 1.477171 1.375285
Si 4.003306 4.096340 1.478917
Si 0.006783 2.661861 2.800668
Si 2.654379 10.829851 2.757869
Si 1.324226 4.083462 4.200973
Si 4.072877 1.347400 4.023793
Si 0.079922 10.819733 5.437375
Si 2.756381 2.689759 5.355675
Si 1.428999 1.398068 6.752359
Si 4.120626 3.987120 6.783784
Si 10.815653 2.668214 8.087669
Si 2.663483 10.799917 8.151135
Si 1.395551 4.079156 9.408623
Si 3.990644 1.360854 9.472122
Si 10.826680 5.301761 10.821381
Si 2.705429 8.110829 10.858123
Si 1.278340 6.712916 1.295293
Si 4.025786 9.460354 1.354936
Si 0.095992 8.210852 2.729450
Si 2.613602 5.457137 2.762518
Si 1.461324 9.423394 4.174169
Si 4.076662 6.750464 4.074741
Si 10.813776 5.560960 5.399714
Si 2.836125 8.080569 5.484520
Si 1.355832 6.808787 6.801546
Si 4.174687 9.483350 6.860179
Si 10.835130 8.168149 8.206581
Si 2.723107 5.417674 8.026422
Si 1.365220 9.429634 9.573048
Si 4.002443 6.689893 9.478221
Si 5.321481 10.826762 10.837230
Si 8.077851 2.757429 0.004608
Si 6.720477 1.374271 1.279595
Si 9.494935 4.008595 1.414329
Si 5.452375 2.747036 2.698485
Si 8.105066 0.014818 2.640698
Si 6.885579 4.125666 4.051004
Si 9.461273 1.255795 4.073256
Si 5.446814 10.826880 5.428309
Si 8.189352 2.736207 5.460434
Si 6.804272 1.312753 6.734035
Si 9.568132 4.157543 6.741575
Si 5.434970 2.663609 8.155125
Si 8.166888 0.035644 8.141882
Si 6.781291 4.129870 9.473768
Si 9.515658 1.450314 9.550201
Si 5.329226 5.369833 0.026607
Si 8.222398 8.113729 0.080780
Si 6.693151 6.735371 1.306255
Si 9.574314 9.572948 1.329538
Si 5.385514 8.137754 2.726309
Si 8.219765 5.534804 2.702595
Si 6.739970 9.471364 4.019094
Si 9.466878 6.946427 4.016061
Si 5.422203 5.414441 5.410593
Si 8.140602 8.249519 5.395369
Si 6.814570 6.845173 6.776165
Si 9.514402 9.544057 6.784142
Si 5.527391 8.135014 8.320104
Si 8.092478 5.487137 8.103205
Si 6.894582 9.516768 9.612891
Si 9.484870 6.732690 9.502646
64
Step 4350
Si 10.858631 0.033468 0.022803
Si 2.693108 2.626156 0.006863
Si 1.366161 1.383944 1.460579
Si 4.098488 3.985506 1.358313
Si 10.817776 2.702134 2.729279
Si 2.717263 0.023787 2.806005
Si 1.365407 4.096054 4.043259
Si 4.136784 1.335760 4.114806
Si 10.851597 0.000427 5.428076
Si 2.799125 2.797138 5.430834
Si 1.369915 1.385846 6.741165
Si 4.186609 4.086594 6.806792
Si 0.039433 2.679557 8.067550
Si 2.741309 0.079919 8.144146
Si 1.308240 4.061746 9.513312
Si 4.106081 1.348207 9.597004
Si 10.772264 5.361265 0.025182
Si 2.718109 8.078447 10.813175
Si 1.341606 6.744298 1.311913
Si 3.989286 9.502934 1.364546
Si 10.808107 8.152766 2.625221
Si 2.698006 5.441395 2.660482
Si 1.300224 9.458521 4.049449
Si 4.084619 6.812626 4.024802
Si 0.003570 5.462750 5.446272
Si 2.686449 8.184582 5.452090
Si 1.323717 6.870303 6.810016
Si 4.064599 9.532933 6.887774
Si 0.010824 8.210117 8.197301
Si 2.718513 5.435261 8.089632
Si 1.416078 9.563660 9.590371
Si 4.067845 6.721864 9.397781
Si 5.422269 10.767435 10.800455
Si 8.155877 2.607412 10.806320
Si 6.723090 1.395380 1.360393
Si 9.394781 3.975514 1.402716
Si 5.470757 2.672106 2.811606
Si 8.152679 0.086383 2.676787
Si 6.783121 4.059158 4.137996
Si 9.504079 1.382653 4.124862
Si 5.445718 10.780877 5.458877
Si 8.177848 2.724207 5.428679
Si 6.790950 1.411012 6.751854
Si 9.542870 4.090783 6.846562
Si 5.499615 2.702703 8.195883
Si 8.092289 10.851849 8.080012
Si 6.832299 4.076501 9.510307
Si 9.613967 1.312970 9.471576
Si 5.431322 5.449838 0.029015
Si 8.143815 8.123260 10.839957
Si 6.773853 6.771302 1.356814
Si 9.425055 9.510908 1.317948
Si 5.449281 8.211083 2.675473
Si 8.083788 5.433427 2.706903
Si 6.819337 9.560531 4.069317
Si 9.480391 6.750911 4.074434
Si 5.440430 5.456702 5.395080
Si 8.178995 8.195129 5.459357
Si 6.735974 6.794328 6.758214
Si 9.494540 9.520942 6.849245
Si 5.444139 8.168705 8.091511
Si 8.130156 5.485475 8.130228
Si 6.818651 9.506758 9.419038
Si 9.534312 6.725810 9.529778
64
Step 4400
Si 10.831592 10.805875 0.001967
Si 2.722313 2.669070 0.071378
Si 1.335323 1.257005 1.384505
Si 4.132103 4.104741 1.260523
Si 0.042328 2.809219 2.697613
Si 2.770810 10.822234 2.705290
Si 1.432463 4.141316 3.987365
Si 4.068870 1.379949 4.134027
Si 10.835870 0.000102 5.438356
Si 2.683494 2.761121 5.445286
Si 1.318713 1.378155 6.799255
Si 3.983449 4.192977 6.809336
Si 0.076953 2.770502 8.187702
Si 2.738530 0.063952 8.140770
Si 1.364989 4.043571 9.619990
Si 4.137175 1.368240 9.598969
Si 0.009287 5.489317 10.859652
Si 2.728596 8.205620 0.023718
Si 1.379223 6.814156 1.390540
Si 4.111736 9.534300 1.358090
Si 10.730465 8.028135 2.666896
Si 2.817499 5.429497 2.646572
Si 1.216261 9.515657 3.952435
Si 3.987791 6.900408 4.022559
Si 0.066445 5.378364 5.425616
Si 2.565847 8.182907 5.346411
Si 1.365223 6.776256 6.821848
Si 3.947584 9.498793 6.693751
Si 0.061894 8.133091 8.146131
Si 2.696661 5.461199 8.307870
Si 1.386913 9.586608 9.455669
Si 4.080723 6.797740 9.555216
Si 5.460290 0.007654 0.005384
Si 8.198629 2.617615 10.840030
Si 6.884261 1.318797 1.435904
Si 9.480958 4.105480 1.309710
Si 5.400121 2.664474 2.638250
Si 8.192845 10.814648 2.795613
Si 6.694426 4.040746 4.089621
Si 9.538489 1.460495 4.075154
Si 5.460209 0.043147 5.456853
Si 8.125925 2.726514 5.485967
Si 6.771080 1.379188 6.905921
Si 9.508835 4.073725 6.841972
Si 5.402432 2.836245 8.105616
Si 8.145374 10.768308 8.134085
Si 6.814509 4.004430 9.537805
Si 9.588818 1.299810 9.538632
Si 5.537840 5.429110 10.815797
Si 8.051620 8.154721 10.752049
Si 6.815313 6.832173 1.384228
Si 9.434209 9.418324 1.389912
Si 5.457245 8.165975 2.753861
Si 8.069540 5.351140 2.726425
Si 6.835934 9.510012 4.119867
Si 9.548206 6.665012 4.109734
Si 5.378884 5.543148 5.417470
Si 8.191177 8.048688 5.375017
Si 6.825677 6.742851 6.746925
Si 9.557875 9.438094 6.766504
Si 5.289640 8.099934 7.987272
Si 8.193621 5.382712 8.204573
Si 6.697453 9.507794 9.377554
Si 9.543430 6.832976 9.504973
64
Step 4450
Si 10.857200 10.840421 10.810043
Si 2.788179 2.733915 0.022361
Si 1.320628 1.342511 1.245509
Si 4.152219 4.097205 1.399303
Si 0.027545 2.717103 2.697070
Si 2.647944 10.858003 2.669841
Si 1.427397 4.026171 4.064913
Si 4.017870 1.375626 4.014166
Si 0.005739 0.084582 5.429958
Si 2.692891 2.659700 5.428040
Si 1.363959 1.390130 6.822052
Si 4.008084 4.065211 6.783686
Si 10.833100 2.732612 8.278101
Si 2.715766 10.826203 8.106714
Si 1.435393 4.082135 9.543686
Si 4.066359 1.323748 9.427993
Si 0.014758 5.497946 0.002390
Si 2.769860 8.247975 0.038606
Si 1.370860 6.875975 1.304819
Si 4.198381 9.572395 1.394976
Si 10.836507 8.123448 2.781790
Si 2.748299 5.486961 2.669683
Si 1.315653 9.555564 4.085816
Si 4.069122 6.796271 4.123548
Si 0.018339 5.326853 5.454455
Si 2.691446 8.127432 5.418041
Si 1.366290 6.723623 6.789804
Si 4.042982 9.514510 6.674782
Si 10.845100 8.147881 8.133793
Si 2.732523 5.469604 8.212762
Si 1.396609 9.468338 9.433676
Si 4.073218 6.887226 9.571484
Si 5.467528 0.121101 10.778059
Si 8.210637 2.767810 0.066574
Si 6.883944 1.303061 1.381213
Si 9.600727 4.122982 1.367998
Si 5.465665 2.710250 2.710292
Si 8.190842 10.811564 2.824496
Si 6.767658 4.060940 4.076571
Si 9.503662 1.402225 4.073018
Si 5.377264 0.099630 5.431814
Si 8.077435 2.749389 5.456298
Si 6.775710 1.319598 6.801065
Si 9.454845 4.035494 6.775863
Si 5.385649 2.761213 8.076439
Si 8.136200 10.809898 8.123261
Si 6.822568 4.053395 9.475819
Si 9.410292 1.287391 9.581157
Si 5.429941 5.424774 10.796235
Si 8.059771 8.162756 10.824322
Si 6.809158 6.770307 1.363987
Si 9.495167 9.463198 1.355018
Si 5.487596 8.166712 2.762750
Si 8.114173 5.326299 2.720607
Si 6.795412 9.476649 4.174421
Si 9.485042 6.705644 4.083377
Si 5.383623 5.387454 5.449271
Si 8.114271 8.007663 5.487018
Si 6.710594 6.739011 6.819038
Si 9.496124 9.484361 6.712142
Si 5.380162 8.145619 8.116531
Si 8.185525 5.377989 8.120401
Si 6.819506 9.545941 9.488327
Si 9.437082 6.868417 9.476745
64
Step 4500
Si 10.827807 0.016856 10.841143
Si 2.725781 2.783899 10.768357
Si 1.386321 1.410164 1.249541
Si 4.027145 4.067865 1.400030
Si 0.017252 2.609304 2.702095
Si 2.665928 0.036276 2.684762
Si 1.300694 4.073658 4.049049
Si 4.059932 1.325174 3.977161
Si 0.005922 0.005192 5.476142
Si 2.699110 2.693236 5.414946
Si 1.321567 1.359978 6.821700
Si 4.126778 3.947705 6.833583
Si 10.853452 2.701082 8.203770
Si 2.649610 10.829827 8.149613
Si 1.332779 4.155415 9.416882
Si 4.056942 1.321842 9.468381
Si 0.042306 5.454544 0.004888
Si 2.750205 8.137401 0.027055
Si 1.359595 6.819376 1.363057
Si 4.081505 9.542115 1.368185
Si 0.079661 8.228691 2.771612
Si 2.625517 5.474795 2.729222
Si 1.452529 9.489514 4.148597
Si 4.130949 6.729637 4.044745
Si 10.807382 5.418793 5.444577
Si 2.790490 8.107420 5.469903
Si 1.291334 6.809419 6.735907
Si 4.141204 9.521328 6.854568
Si 10.786483 8.126407 8.094781
Si 2.713885 5.400614 8.004063
Si 1.309038 9.393347 9.536693
Si 4.105622 6.798561 9.454252
Si 5.435045 0.053798 0.009906
Si 8.108366 2.769509 0.005093
Si 6.761195 1.392145 1.323936
Si 9.551715 4.082026 1.346549
Si 5.458334 2.729686 2.757557
Si 8.101216 0.001128 2.634875
Si 6.862338 4.113591 4.062358
Si 9.497502 1.260183 4.055927
Si 5.378809 10.749871 5.342713
Si 8.196775 2.664811 5.415032
Si 6.762224 1.313002 6.663928
Si 9.513881 4.060932 6.813949
Si 5.505491 2.613752 8.222553
Si 8.175081 0.075714 8.147478
Si 6.756519 4.097648 9.537098
Si 9.477385 1.408767 9.470704
Si 5.383177 5.435820 0.058177
Si 8.208029 8.160991 0.102917
Si 6.753588 6.745343 1.370372
Si 9.551411 9.555942 1.375645
Si 5.406741 8.127408 2.673352
Si 8.250447 5.541730 2.712918
Si 6.806869 9.467332 4.037171
Si 9.497771 6.873503 4.121041
Si 5.434976 5.326527 5.438752
Si 8.083616 8.187021 5.496380
Si 6.700033 6.817238 6.870445
Si 9.467925 9.527762 6.780700
Si 5.509141 8.190075 8.267005
Si 8.115558 5.425218 8.119041
Si 6.897235 9.545976 9.612203
Si 9.450869 6.756130 9.504960
64
Step 4550
Si 0.042080 10.857198 10.859763
Si 2.631391 2.717845 10.780547
Si 1.359572 1.364480 1.408752
Si 3.959175 4.075286 1.337369
Si 10.806066 2.747379 2.703069
Si 2.802373 0.037695 2.704875
Si 1.251657 4.039083 4.119739
Si 4.103117 1.393818 4.144046
Si 0.026719 10.753195 5.427506
Si 2.717199 2.746215 5.425349
Si 1.409928 1.300967 6.774192
Si 4.116455 4.074694 6.697835
Si 0.023968 2.732704 7.974243
Si 2.700185 10.818683 8.219382
Si 1.321003 4.122299 9.451814
Si 4.075475 1.366925 9.554212
Si 10.830126 5.421219 0.008927
Si 2.618608 8.029180 10.741399
Si 1.335680 6.726714 1.445820
Si 3.914149 9.399002 1.269763
Si 0.063672 8.202419 2.722654
Si 2.668350 5.343564 2.797788
Si 1.497706 9.497292 4.103488
Si 4.104573 6.705532 4.109471
Si 10.837048 5.525301 5.393107
Si 2.787698 8.133349 5.461208
Si 1.406457 6.817051 6.810872
Si 4.127586 9.466171 6.928649
Si 10.858653 8.101391 8.196179
Si 2.752092 5.383420 8.047268
Si 1.290618 9.510659 9.500648
Si 4.067141 6.737162 9.456891
Si 5.402898 10.760833 0.097101
Si 8.109271 2.759364 10.855615
Si 6.671230 1.487046 1.352727
Si 9.457936 4.084429 1.374362
Si 5.380962 2.829328 2.729793
Si 8.120666 0.062354 2.632723
Si 6.866547 4.077006 4.079722
Si 9.526349 1.329914 4.059036
Si 5.429895 10.809250 5.453201
Si 8.198990 2.667947 5.362398
Si 6.812276 1.339027 6.775878
Si 9.457372 4.109597 6.763211
Si 5.428900 2.632836 8.116291
Si 8.166657 0.079427 8.199856
Si 6.683875 4.091773 9.510103
Si 9.567297 1.444244 9.410356
Si 5.406993 5.459955 0.037105
Si 8.261965 8.125784 0.034321
Si 6.823322 6.762803 1.315449
Si 9.602419 9.540291 1.344303
Si 5.347279 8.084517 2.688092
Si 8.256392 5.530563 2.742160
Si 6.710238 9.539239 3.930890
Si 9.528024 6.914013 4.092913
Si 5.523370 5.422683 5.405695
Si 8.141250 8.252605 5.372738
Si 6.840073 6.836202 6.824762
Si 9.490908 9.527921 6.886585
Si 5.487801 8.100514 8.231037
Si 8.047654 5.450327 8.213113
Si 6.787379 9.483940 9.562760
Si 9.541279 6.702392 9.552865
64
Step 4600
Si 0.031469 0.029258 0.008242
Si 2.707665 2.648456 0.065473
Si 1.352493 1.331970 1.426708
Si 4.059887 4.062910 1.304411
Si 10.813794 2.737754 2.733190
Si 2.777182 10.792821 2.754282
Si 1.354581 4.072197 4.173506
Si 4.139117 1.371925 4.095592
Si 0.045717 0.001587 5.413599
Si 2.738881 2.672162 5.450099
Si 1.402100 1.340867 6.784158
Si 4.091136 4.168758 6.728493
Si 10.795721 2.729989 8.051334
Si 2.804856 0.007499 8.160171
Si 1.408020 3.969631 9.475052
Si 4.041894 1.388393 9.511846
Si 10.819177 5.344287 10.808224
Si 2.649537 8.104868 0.035946
Si 1.302912 6.705478 1.320571
Si 4.101720 9.478330 1.339097
Si 0.014425 8.165319 2.688601
Si 2.733254 5.410052 2.732520
Si 1.363542 9.521550 4.086294
Si 4.037358 6.810061 4.071586
Si 0.013305 5.502890 5.494127
Si 2.749178 8.163366 5.434275
Si 1.424067 6.782286 6.833981
Si 4.093275 9.500867 6.758581
Si 10.833169 8.155825 8.111366
Si 2.724662 5.401541 8.231652
Si 1.348211 9.578264 9.521122
Si 4.026079 6.747504 9.543092
Si 5.458160 10.799759 10.844321
Si 8.116335 2.655388 10.832266
Si 6.808551 1.295834 1.349889
Si 9.397475 4.021743 1.342922
Si 5.415008 2.714767 2.666869
Si 8.154846 0.028965 2.737939
Si 6.733753 4.063609 4.066896
Si 9.493643 1.354740 4.141367
Si 5.497735 0.130356 5.507038
Si 8.127477 2.742552 5.455949
Si 6.834995 1.349989 6.915192
Si 9.493818 4.070610 6.746455
Si 5.354114 2.733033 8.118745
Si 8.177236 10.784997 8.203399
Si 6.788020 3.987216 9.459617
Si 9.467645 1.387243 9.451230
Si 5.453715 5.385080 10.834390
Si 8.092038 8.161718 10.843649
Si 6.769415 6.842978 1.332171
Si 9.465664 9.551710 1.340332
Si 5.446185 8.183931 2.719726
Si 8.065144 5.437831 2.717688
Si 6.733207 9.559639 4.070195
Si 9.527614 6.823776 4.041093
Si 5.508148 5.540311 5.436566
Si 8.151724 8.254348 5.343007
Si 6.949529 6.833395 6.743222
Si 9.507426 9.520683 6.749920
Si 5.466489 8.121495 8.118142
Si 8.140876 5.414616 8.143039
Si 6.687367 9.497034 9.499305
Si 9.502248 6.774006 9.526261
64
Step 4650
Si 0.028299 10.777842 0.054051
Si 2.767714 2.688228 0.086963
Si 1.306120 1.339766 1.405533
Si 4.161014 4.078377 1.428336
Si 0.048176 2.723450 2.785458
Si 2.634027 10.854641 2.737533
Si 1.424370 4.128216 3.982283
Si 4.004820 1.344829 4.004509
Si 0.021951 0.114737 5.431856
Si 2.760028 2.783899 5.424878
Si 1.383007 1.413855 6.814832
Si 4.063605 4.076488 6.890837
Si 10.839863 2.655826 8.295260
Si 2.702932 0.002127 8.106234
Si 1.364321 4.028117 9.591004
Si 4.035132 1.360667 9.394560
Si 10.813816 5.403483 10.851279
Si 2.747096 8.204902 0.110115
Si 1.345667 6.797376 1.244628
Si 4.115505 9.571879 1.415983
Si 10.810540 8.064287 2.616326
Si 2.678700 5.497468 2.618009
Si 1.228697 9.447578 4.000357
Si 4.037303 6.860477 3.983991
Si 0.060698 5.397736 5.398113
Si 2.680354 8.155139 5.461518
Si 1.294190 6.823650 6.830559
Si 4.052164 9.508523 6.706318
Si 0.011703 8.209491 8.163123
Si 2.688667 5.483341 8.271950
Si 1.401087 9.492813 9.577145
Si 4.028939 6.805238 9.540206
Si 5.471752 0.012407 10.777327
Si 8.207343 2.645435 10.848390
Si 6.845028 1.260315 1.356554
Si 9.556925 4.041618 1.370394
Si 5.505066 2.618430 2.712173
Si 8.234854 10.832596 2.777023
Si 6.740925 4.137162 4.045973
Si 9.465654 1.464844 4.095789
Si 5.396250 0.020947 5.396351
Si 8.049247 2.816320 5.489613
Si 6.742154 1.411124 6.794013
Si 9.610343 4.060949 6.830318
Si 5.464865 2.809521 8.192554
Si 8.133083 10.804046 8.058194
Si 6.899075 4.153047 9.526307
Si 9.451438 1.226744 9.578823
Si 5.426643 5.436364 10.800750
Si 8.089154 8.124193 10.840862
Si 6.753191 6.779029 1.410343
Si 9.430594 9.450573 1.352461
Si 5.515999 8.203677 2.740802
Si 8.066687 5.338119 2.666055
Si 6.904938 9.522511 4.197695
Si 9.479128 6.649340 3.986863
Si 5.337368 5.464346 5.428631
Si 8.223443 8.002918 5.457477
Si 6.716233 6.752568 6.725411
Si 9.618534 9.483939 6.734289
Si 5.344667 8.152662 8.061452
Si 8.227038 5.483165 8.069991
Si 6.768502 9.480569 9.434816
Si 9.505360 6.850093 9.464550
64
Step 4700
Si 10.785535 10.784991 0.022688
Si 2.768839 2.722677 10.820158
Si 1.394729 1.348572 1.282592
Si 4.113833 4.032281 1.317814
Si 0.042049 2.722034 2.710279
Si 2.692175 0.010992 2.724871
Si 1.445818 4.114644 4.017945
Si 4.027138 1.370396 4.109791
Si 10.827226 10.851963 5.432804
Si 2.692974 2.754300 5.463349
Si 1.320291 1.399330 6.770001
Si 4.045949 4.047384 6.900297
Si 0.083776 2.665078 8.232710
Si 2.709830 0.087168 8.151390
Si 1.320329 4.078852 9.586448
Si 4.131600 1.348373 9.521171
Si 0.018728 5.456905 10.840163
Si 2.854866 8.224429 10.822386
Si 1.389044 6.871530 1.347707
Si 4.135519 9.614225 1.403282
Si 10.794047 8.061687 2.815653
Si 2.812320 5.477354 2.642026
Si 1.261512 9.509631 4.036059
Si 4.083139 6.873496 4.068588
Si 0.002380 5.345844 5.442838
Si 2.585062 8.133799 5.354307
Si 1.330450 6.773691 6.726231
Si 3.946066 9.491781 6.719004
Si 0.077196 8.173398 8.168323
Si 2.669175 5.467800 8.169228
Si 1.412194 9.526886 9.494736
Si 4.086726 6.783131 9.438576
Si 5.474446 0.024485 10.853957
Si 8.177393 2.627190 10.805492
Si 6.798069 1.360738 1.367692
Si 9.576334 4.061772 1.316311
Si 5.442226 2.704031 2.722954
Si 8.156199 10.861262 2.754938
Si 6.762158 4.065626 4.117847
Si 9.514155 1.398673 4.129855
Si 5.417694 10.785175 5.385435
Si 8.176962 2.720516 5.491751
Si 6.759722 1.402663 6.671182
Si 9.510620 4.069924 6.894388
Si 5.485435 2.764400 8.172308
Si 8.073007 0.085127 8.020342
Si 6.831071 4.145773 9.570715
Si 9.518858 1.300033 9.518961
Si 5.444486 5.465532 0.030417
Si 8.091212 8.119045 10.775514
Si 6.781977 6.786349 1.400841
Si 9.479046 9.386191 1.377334
Si 5.433863 8.164161 2.743954
Si 8.180830 5.334473 2.704723
Si 6.849992 9.468009 4.097745
Si 9.500413 6.665576 4.137985
Si 5.300453 5.424962 5.425469
Si 8.176368 8.079699 5.485948
Si 6.673747 6.745052 6.792891
Si 9.472924 9.502933 6.831065
Si 5.373656 8.164377 8.082419
Si 8.150247 5.414725 8.186983
Si 6.798215 9.526013 9.419253
Si 9.479690 6.834908 9.467909
64
Step 4750
Si 10.818885 0.026348 10.843590
Si 2.687035 2.685020 10.802633
Si 1.343788 1.337668 1.304745
Si 4.029054 4.102784 1.316059
Si 0.012541 2.704216 2.587285
Si 2.765510 0.047981 2.704187
Si 1.320054 4.022784 4.096747
Si 4.142406 1.370291 4.121217
Si 10.777818 10.778201 5.461677
Si 2.653711 2.626697 5.409089
Si 1.335695 1.276221 6.796614
Si 4.069389 4.073219 6.680050
Si 0.000729 2.728884 8.063229
Si 2.758062 10.852448 8.182287
Si 1.325138 4.165755 9.488285
Si 4.148001 1.326449 9.561048
Si 0.077493 5.493539 0.056560
Si 2.673784 8.144965 10.811103
Si 1.420163 6.860315 1.420194
Si 4.065297 9.467696 1.283283
Si 10.839707 8.140117 2.750704
Si 2.699953 5.417318 2.754177
Si 1.412359 9.567162 4.057545
Si 4.099847 6.715989 4.116421
Si 10.846012 5.372326 5.464119
Si 2.695735 8.159264 5.369867
Si 1.371026 6.759100 6.776085
Si 4.074849 9.538917 6.805302
Si 0.011968 8.131052 8.152543
Si 2.781838 5.443462 8.048042
Si 1.381028 9.522779 9.449526
Si 4.095479 6.843482 9.475937
Si 5.455841 0.044545 0.060526
Si 8.167671 2.727488 0.011444
Si 6.830871 1.457738 1.444622
Si 9.518076 4.122022 1.375571
Si 5.366308 2.778803 2.771023
Si 8.135324 0.004013 2.699671
Si 6.780587 4.039432 4.110800
Si 9.549862 1.325480 3.965671
Si 5.421884 0.008120 5.456203
Si 8.191251 2.643855 5.361650
Si 6.821699 1.320053 6.775760
Si 9.354256 4.096057 6.778187
Si 5.406191 2.676963 8.097104
Si 8.128213 10.859427 8.199033
Si 6.745935 3.976323 9.500468
Si 9.563026 1.411047 9.512162
Si 5.454547 5.455760 0.040990
Si 8.170869 8.185732 0.021501
Si 6.902389 6.753593 1.327291
Si 9.510755 9.529473 1.365031
Si 5.410503 8.100489 2.649779
Si 8.198194 5.438579 2.746921
Si 6.684669 9.487787 4.000414
Si 9.455206 6.826288 4.174345
Si 5.536340 5.393051 5.478973
Si 8.034984 8.249650 5.415157
Si 6.840244 6.840320 6.861533
Si 9.402742 9.488960 6.841661
Si 5.455746 8.149376 8.148850
Si 8.077265 5.378436 8.283729
Si 6.752594 9.467313 9.482987
Si 9.525588 6.783392 9.552784
64
Step 4800
Si 0.069043 0.097749 10.810587
Si 2.666133 2.804497 10.809616
Si 1.409152 1.369274 1.360296
Si 3.955958 4.114231 1.383020
Si 10.861727 2.688886 2.721531
Si 2.725447 10.801605 2.662425
Si 1.248534 4.056313 4.138530
Si 4.053946 1.331342 3.961718
Si 0.058269 10.846798 5.402896
Si 2.696775 2.658451 5.424860
Si 1.309436 1.317013 6.830376
Si 4.090115 4.049135 6.714275
Si 10.810095 2.777544 8.098231
Si 2.666425 10.751044 8.093195
Si 1.385724 4.093570 9.363564
Si 4.054673 1.370550 9.516167
Si 0.077728 5.391298 10.818558
Si 2.625956 8.073319 0.041920
Si 1.317311 6.751306 1.429378
Si 4.039888 9.424891 1.346991
Si 0.063313 8.273152 2.707987
Si 2.611612 5.368442 2.850847
Si 1.488258 9.469895 4.142635
Si 4.092834 6.712853 4.082328
Si 10.795573 5.540574 5.426457
Si 2.859697 8.111461 5.446498
Si 1.404784 6.794507 6.817049
Si 4.147254 9.490667 6.833728
Si 10.781791 8.063718 8.096312
Si 2.729558 5.399821 8.037466
Si 1.288741 9.443982 9.447784
Si 4.031684 6.734407 9.559754
Si 5.359735 0.029960 0.008037
Si 8.116183 2.834669 0.060402
Si 6.730000 1.395543 1.344865
Si 9.488225 4.143794 1.397952
Si 5.403331 2.798995 2.652832
Si 8.115953 10.834221 2.665222
Si 6.849007 4.098186 4.075629
Si 9.523549 1.291366 4.055411
Si 5.425229 0.044069 5.445295
Si 8.144145 2.693563 5.396869
Si 6.812588 1.329920 6.906877
Si 9.531079 4.074003 6.713541
Si 5.403836 2.656190 8.149976
Si 8.198838 10.806495 8.259015
Si 6.772603 4.035706 9.428237
Si 9.502739 1.470174 9.503189
Si 5.379959 5.370636 10.844044
Si 8.223434 8.130902 0.109367
Si 6.743800 6.720476 1.326551
Si 9.593293 9.602680 1.355200
Si 5.368800 8.084603 2.636290
Si 8.159836 5.584803 2.734353
Si 6.688476 9.533312 4.002405
Si 9.530508 6.941401 4.046280
Si 5.510542 5.419795 5.448851
Si 8.119935 8.198966 5.409038
Si 6.872952 6.814950 6.837790
Si 9.546590 9.523432 6.784948
Si 5.463412 8.153702 8.280594
Si 8.195527 5.402296 8.145401
Si 6.833291 9.520148 9.643565
Si 9.559153 6.734768 9.538987
64
Step 4850
Si 0.054050 10.860609 10.851423
Si 2.752538 2.673229 0.001638
Si 1.340660 1.444669 1.396727
Si 4.098758 4.047652 1.393825
Si 10.796174 2.727035 2.853131
Si 2.722315 0.035523 2.727334
Si 1.360353 4.048132 4.098657
Si 4.069708 1.376010 4.091060
Si 0.061487 0.042068 5.395096
Si 2.757443 2.732917 5.408088
Si 1.445557 1.388539 6.756210
Si 4.151577 3.994758 6.828394
Si 10.809233 2.695638 8.138656
Si 2.639051 10.777807 8.081886
Si 1.383687 4.019639 9.476304
Si 4.022308 1.365453 9.465679
Si 10.748574 5.341598 0.006846
Si 2.698617 8.091085 10.810620
Si 1.271263 6.730014 1.302537
Si 4.048343 9.483137 1.356276
Si 0.027615 8.187904 2.706080
Si 2.682786 5.453416 2.682071
Si 1.422846 9.457694 4.113637
Si 4.139234 6.768729 4.062132
Si 10.837107 5.507360 5.352031
Si 2.868763 8.138135 5.547731
Si 1.348473 6.803849 6.753653
Si 4.193652 9.473663 6.888968
Si 10.849710 8.194670 8.163601
Si 2.710763 5.400979 8.133970
Si 1.353051 9.501807 9.563513
Si 4.084618 6.759921 9.478626
Si 5.369565 10.836281 10.785229
Si 8.134209 2.758973 0.037394
Si 6.730349 1.319698 1.267307
Si 9.466699 3.987575 1.374710
Si 5.492794 2.678467 2.732535
Si 8.114026 0.058050 2.694006
Si 6.796191 4.064994 4.067754
Si 9.394111 1.375703 4.163476
Si 5.426518 10.846041 5.386245
Si 8.071660 2.734069 5.464271
Si 6.732320 1.346894 6.786187
Si 9.540497 4.056813 6.786639
Si 5.496058 2.640817 8.164231
Si 8.151341 0.066987 8.146203
Si 6.791630 4.153095 9.499400
Si 9.441224 1.330768 9.540781
Si 5.332352 5.432189 10.790416
Si 8.163588 8.116028 10.847995
Si 6.726375 6.799274 1.340806
Si 9.517785 9.551388 1.307352
Si 5.453360 8.178998 2.761570
Si 8.134315 5.433357 2.706424
Si 6.837383 9.530588 4.118900
Si 9.499684 6.873638 4.015936
Si 5.449690 5.436139 5.454244
Si 8.158801 8.177440 5.493356
Si 6.753977 6.785232 6.763701
Si 9.559443 9.541752 6.787774
Si 5.505069 8.117519 8.223148
Si 8.147742 5.527561 8.030451
Si 6.850737 9.525725 9.555131
Si 9.456177 6.778322 9.466024
64
Step 4900
Si 10.814590 10.804353 0.071427
Si 2.733247 2.636414 0.041221
Si 1.303474 1.337530 1.439590
Si 4.130342 4.041739 1.321087
Si 0.003056 2.750948 2.728085
Si 2.708988 0.018330 2.755439
Si 1.437591 4.188476 3.993579
Si 4.105520 1.355975 4.132407
Si 10.845616 10.836786 5.436364
Si 2.703562 2.802538 5.433011
Si 1.362358 1.362987 6.732697
Si 4.031629 4.137843 6.865727
Si 0.043614 2.730385 8.133668
Si 2.744124 0.111992 8.164553
Si 1.299763 3.996086 9.630688
Si 4.114967 1.384146 9.602234
Si 10.757077 5.420589 0.022504
Si 2.777310 8.170440 0.019349
Si 1.355427 6.810601 1.271779
Si 4.048473 9.544432 1.372205
Si 10.861224 8.044080 2.721235
Si 2.823382 5.524338 2.580853
Si 1.316987 9.537516 3.984773
Si 4.018727 6.857922 4.025005
Si 0.083360 5.407457 5.439894
Si 2.557273 8.122553 5.384122
Si 1.350308 6.771223 6.770266
Si 3.923218 9.509153 6.734984
Si 0.124407 8.179058 8.158944
Si 2.630582 5.383805 8.227347
Si 1.395560 9.603074 9.586234
Si 4.075985 6.741182 9.487630
Si 5.448684 10.762501 0.026133
Si 8.141011 2.605928 10.794086
Si 6.791892 1.285796 1.363431
Si 9.424949 4.010266 1.288849
Si 5.403708 2.662635 2.730857
Si 8.201476 0.003808 2.747517
Si 6.757145 4.077995 4.019057
Si 9.518655 1.401869 4.110369
Si 5.427841 10.791582 5.467601
Si 8.169428 2.798835 5.495766
Si 6.763807 1.394901 6.755351
Si 9.540554 4.087968 6.867335
Si 5.414610 2.771527 8.181558
Si 8.206757 0.054284 8.097064
Si 6.771782 4.115397 9.586986
Si 9.527702 1.278294 9.467491
Si 5.508176 5.495044 10.854596
Si 8.112831 8.155300 10.817317
Si 6.837315 6.872228 1.391274
Si 9.443018 9.409557 1.428188
Si 5.478868 8.198181 2.739713
Si 8.091242 5.358749 2.698203
Si 6.866024 9.486378 4.069101
Si 9.470651 6.675492 4.065500
Si 5.350124 5.438492 5.401909
Si 8.273230 8.166304 5.396357
Si 6.808977 6.733499 6.708198
Si 9.544275 9.524838 6.815143
Si 5.422092 8.116747 8.032919
Si 8.144051 5.422792 8.168904
Si 6.764638 9.484807 9.373670
Si 9.476724 6.818074 9.492649
64
Step 4950
Si 0.022933 10.843823 0.026608
Si 2.759085 2.702085 0.030105
Si 1.318981 1.316496 1.363026
Si 4.117970 4.120893 1.336190
Si 0.053482 2.756791 2.631420
Si 2.686617 0.004334 2.775507
Si 1.406298 4.089240 4.008508
Si 4.061203 1.355992 4.096955
Si 10.832090 0.039808 5.453437
Si 2.689722 2.714786 5.409101
Si 1.342777 1.378414 6.824884
Si 3.977604 4.154591 6.715583
Si 0.039400 2.727862 8.172807
Si 2.807552 0.067029 8.162211
Si 1.351855 4.101893 9.583957
Si 4.110849 1.349250 9.526057
Si 0.051657 5.476323 10.844267
Si 2.773107 8.257782 10.850039
Si 1.424424 6.826320 1.309614
Si 4.117531 9.569870 1.376881
Si 10.788981 8.048105 2.679546
Si 2.722230 5.439867 2.698966
Si 1.210458 9.474831 4.056225
Si 4.032331 6.831020 4.066427
Si 0.055846 5.334970 5.489401
Si 2.598018 8.143171 5.381003
Si 1.336878 6.780771 6.895614
Si 4.005187 9.553345 6.740694
Si 0.038275 8.165389 8.225928
Si 2.728565 5.443500 8.247395
Si 1.411902 9.576838 9.427434
Si 4.091988 6.869845 9.514447
Si 5.534257 10.855946 10.850235
Si 8.140282 2.618305 10.857348
Si 6.855830 1.333140 1.470737
Si 9.505079 4.095924 1.346439
Si 5.406788 2.703880 2.674257
Si 8.210007 10.789660 2.799246
Si 6.734382 4.075658 4.094086
Si 9.592824 1.453461 4.030601
Si 5.414232 0.070384 5.552197
Si 8.196444 2.718485 5.428023
Si 6.783785 1.394820 6.804892
Si 9.458597 4.059209 6.840046
Si 5.339144 2.806001 8.095707
Si 8.135986 10.804186 8.094720
Si 6.799761 4.007777 9.477138
Si 9.516926 1.263916 9.457837
Si 5.524975 5.402182 10.810472
Si 8.120696 8.196420 10.785677
Si 6.830074 6.780218 1.357099
Si 9.476469 9.451809 1.357776
Si 5.454983 8.173626 2.706004
Si 8.086096 5.347417 2.738892
Si 6.772840 9.507693 4.191757
Si 9.516598 6.644571 4.100987
Si 5.386876 5.448776 5.380059
Si 8.169868 8.033220 5.413583
Si 6.732376 6.783399 6.802933
Si 9.507757 9.416803 6.789034
Si 5.318172 8.131914 7.996816
Si 8.121883 5.432100 8.224449
Si 6.692146 9.448481 9.338599
Si 9.558055 6.819400 9.520108
64
Step 5000
Si 0.009436 0.058850 10.827819
Si 2.791960 2.792571 10.821122
Si 1.435327 1.343479 1.253044
Si 4.063937 4.117480 1.380888
Si 0.009513 2.680432 2.650695
Si 2.659807 10.785382 2.719451
Si 1.294656 4.008080 4.137935
Si 4.024700 1.383816 3.993603
Si 0.003750 10.853275 5.461346
Si 2.709021 2.621257 5.416363
Si 1.282428 1.433691 6.833176
Si 4.095191 4.030162 6.762071
Si 10.814833 2.675181 8.249040
Si 2.710443 0.013562 8.160713
Si 1.443669 4.107815 9.424805
Si 4.107056 1.360403 9.392621
Si 0.117748 5.423770 10.851996
Si 2.768183 8.184228 0.008453
Si 1.358740 6.874742 1.415601
Si 4.154891 9.535137 1.418322
Si 10.827197 8.199764 2.737605
Si 2.657906 5.408550 2.762904
Si 1.347444 9.435551 4.148914
Si 4.093524 6.854862 4.060726
Si 10.772816 5.424840 5.480785
Si 2.756734 8.127960 5.457964
Si 1.325264 6.784653 6.797964
Si 4.135695 9.528046 6.753329
Si 10.733433 8.145356 8.141759
Si 2.783158 5.510783 8.084467
Si 1.372499 9.434287 9.486307
Si 4.051143 6.846138 9.525087
Si 5.441948 0.137534 0.014467
Si 8.185286 2.769810 0.027455
Si 6.858656 1.369517 1.348796
Si 9.541901 4.099923 1.390623
Si 5.478385 2.716082 2.697127
Si 8.105315 10.830004 2.740767
Si 6.819534 4.043415 4.099588
Si 9.487483 1.288527 4.061383
Si 5.444447 0.086879 5.329519
Si 8.147474 2.647947 5.417219
Si 6.796711 1.321059 6.802526
Si 9.519368 4.032737 6.767126
Si 5.493769 2.701398 8.108335
Si 8.122136 10.827313 8.149946
Si 6.842734 4.051227 9.499504
Si 9.444284 1.390856 9.556834
Si 5.424581 5.377698 0.033981
Si 8.096564 8.115706 0.017674
Si 6.713314 6.739654 1.320369
Si 9.511601 9.554341 1.282191
Si 5.449597 8.144198 2.722986
Si 8.154660 5.470073 2.697163
Si 6.745850 9.477365 4.091807
Si 9.523402 6.791909 4.091849
Si 5.433125 5.418957 5.380451
Si 8.027633 8.056604 5.466572
Si 6.729385 6.758860 6.841223
Si 9.458951 9.466156 6.697131
Si 5.413693 8.172039 8.220553
Si 8.170148 5.407663 8.099245
Si 6.803829 9.567921 9.619338
Si 9.486116 6.766542 9.511364
64
Step 5050
Si 0.017614 10.849324 10.858617
Si 2.641494 2.759691 10.824856
Si 1.407991 1.378777 1.289573
Si 3.980612 4.072595 1.364259
Si 0.001144 2.652214 2.763613
Si 2.714400 0.048808 2.638095
Si 1.291684 4.043958 4.108976
Si 4.069985 1.373573 4.047354
Si 10.850018 10.803549 5.451202
Si 2.679532 2.727436 5.448179
Si 1.344194 1.277599 6.792715
Si 4.142962 4.003580 6.762767
Si 0.018210 2.718063 8.150295
Si 2.671015 10.759969 8.177065
Si 1.391397 4.134479 9.448960
Si 4.037341 1.333122 9.430690
Si 0.010297 5.452756 0.046914
Si 2.624117 8.054095 0.011928
Si 1.321429 6.766578 1.418377
Si 3.997262 9.483108 1.284781
Si 0.056160 8.221961 2.748991
Si 2.625909 5.406885 2.777326
Si 1.508261 9.555056 4.088926
Si 4.052507 6.696251 4.136243
Si 10.806828 5.474377 5.392939
Si 2.826202 8.149496 5.515527
Si 1.372978 6.814916 6.699325
Si 4.090283 9.476884 6.871074
Si 10.821842 8.097620 8.093426
Si 2.748790 5.406408 8.026475
Si 1.315927 9.408956 9.520778
Si 4.029637 6.818574 9.447509
Si 5.358333 0.035324 0.014134
Si 8.224856 2.875867 0.053478
Si 6.715189 1.469510 1.310842
Si 9.644186 4.074097 1.390175
Si 5.423007 2.833273 2.765338
Si 8.141794 0.043597 2.604680
Si 6.884125 4.062072 4.058735
Si 9.502479 1.224992 4.043785
Si 5.355816 10.760977 5.365373
Si 8.131899 2.672781 5.359375
Si 6.821864 1.298942 6.695421
Si 9.530259 4.103139 6.727793
Si 5.517532 2.661173 8.151309
Si 8.125228 0.010374 8.205252
Si 6.757207 4.138671 9.503858
Si 9.569623 1.441439 9.544383
Si 5.329463 5.423025 0.093438
Si 8.219432 8.093757 0.052491
Si 6.793958 6.763754 1.352399
Si 9.560925 9.512276 1.338243
Si 5.358807 8.091463 2.695267
Si 8.238714 5.481354 2.686392
Si 6.807325 9.523932 3.957543
Si 9.465037 6.908996 4.046342
Si 5.477291 5.378353 5.462250
Si 8.074352 8.208860 5.477842
Si 6.772801 6.760182 6.801938
Si 9.453484 9.540994 6.847902
Si 5.490516 8.193831 8.290392
Si 8.156211 5.458474 8.119819
Si 6.858257 9.572077 9.677332
Si 9.493987 6.745805 9.528715
64
Step 5100
Si 10.817164 10.857761 10.823775
Si 2.575628 2.667350 10.844243
Si 1.358039 1.371006 1.388476
Si 4.036687 4.098908 1.273582
Si 10.851726 2.704149 2.797677
Si 2.825764 0.062886 2.725468
Si 1.402020 4.075943 4.124485
Si 4.142816 1.343223 4.124215
Si 0.045676 10.814819 5.459827
Si 2.742204 2.668081 5.473502
Si 1.437078 1.283815 6.807383
Si 4.096110 4.050550 6.807862
Si 10.842319 2.759065 8.023096
Si 2.729377 10.841609 8.167366
Si 1.271732 4.050921 9.434069
Si 4.072313 1.345948 9.582764
Si 10.774308 5.410836 10.840964
Si 2.702681 8.076963 10.820374
Si 1.340659 6.722531 1.385065
Si 4.029972 9.461704 1.279265
Si 0.068039 8.180651 2.768363
Si 2.781383 5.420324 2.771402
Si 1.400324 9.573666 4.043418
Si 4.161263 6.700140 4.072068
Si 10.845016 5.428185 5.408691
Si 2.747787 8.135650 5.414580
Si 1.387958 6.745682 6.780245
Si 4.093654 9.448508 6.814750
Si 0.076566 8.088688 8.123671
Si 2.714391 5.366718 8.160043
Si 1.290495 9.504700 9.493422
Si 4.097276 6.708823 9.458219
Si 5.421486 10.800598 0.016755
Si 8.053885 2.706790 10.790737
Si 6.719260 1.444566 1.345961
Si 9.413407 4.000830 1.330615
Si 5.380334 2.758319 2.696493
Si 8.083821 0.051735 2.627346
Si 6.847772 4.056409 4.051963
Si 9.500526 1.316112 4.070591
Si 5.459551 10.839840 5.511765
Si 8.134199 2.715528 5.429542
Si 6.819876 1.384765 6.831276
Si 9.451629 4.114312 6.798833
Si 5.377917 2.695034 8.171623
Si 8.186516 0.060912 8.157342
Si 6.705117 4.097950 9.498652
Si 9.564150 1.462412 9.441452
Si 5.447063 5.448974 10.846926
Si 8.166125 8.180823 0.031231
Si 6.768586 6.822500 1.392298
Si 9.527822 9.511527 1.465084
Si 5.376798 8.141438 2.697615
Si 8.176891 5.471870 2.731899
Si 6.717826 9.529363 3.991203
Si 9.497924 6.894532 4.110917
Si 5.516807 5.458910 5.516059
Si 8.167093 8.300985 5.336764
Si 6.891063 6.882256 6.762233
Si 9.477720 9.544935 6.889193
Si 5.434938 8.115777 8.183090
Si 8.078637 5.393048 8.184200
Si 6.799486 9.496596 9.436657
Si 9.523327 6.776572 9.469350
64
Step 5150
Si 0.000835 0.018946 0.010480
Si 2.663164 2.635498 0.083198
Si 1.305480 1.409175 1.429640
Si 4.079332 4.059611 1.371316
Si 10.834076 2.754345 2.678575
Si 2.688986 10.812084 2.772048
Si 1.399898 4.027189 4.006283
Si 4.113212 1.381703 4.055880
Si 0.082683 0.071393 5.342071
Si 2.789826 2.715895 5.397876
Si 1.438289 1.364951 6.836586
Si 4.079054 4.162495 6.765972
Si 10.788347 2.705256 8.130909
Si 2.753011 0.009134 8.164220
Si 1.272985 4.038191 9.589322
Si 3.996556 1.366632 9.597629
Si 10.770404 5.398437 0.006181
Si 2.703670 8.144733 10.850401
Si 1.347338 6.743948 1.265856
Si 4.079900 9.497981 1.394177
Si 0.022273 8.102526 2.617714
Si 2.759974 5.478966 2.670562
Si 1.296610 9.427000 4.088085
Si 4.106985 6.816595 4.016590
Si 0.077397 5.411887 5.432507
Si 2.665495 8.091609 5.373053
Si 1.358715 6.775055 6.820582
Si 4.061416 9.512334 6.695068
Si 0.039526 8.164706 8.210040
Si 2.653703 5.433768 8.199345
Si 1.338021 9.585147 9.584689
Si 4.100144 6.783773 9.550217
Si 5.456726 10.809193 10.797473
Si 8.096174 2.598896 10.856436
Si 6.803287 1.218057 1.370030
Si 9.381388 4.073009 1.386788
Si 5.445618 2.690149 2.665208
Si 8.171598 0.001598 2.834523
Si 6.745011 4.095487 4.060245
Si 9.536101 1.484320 4.116099
Si 5.471167 0.123951 5.503482
Si 8.122939 2.760058 5.441402
Si 6.749824 1.411919 6.879517
Si 9.454170 4.083176 6.792820
Si 5.308876 2.697638 8.182700
Si 8.212200 10.769521 8.064443
Si 6.787154 4.047243 9.495524
Si 9.436001 1.261286 9.505036
Si 5.482026 5.472349 10.853590
Si 8.125338 8.216899 10.814532
Si 6.873566 6.827715 1.334743
Si 9.461263 9.518646 1.336531
Si 5.478664 8.207108 2.725729
Si 8.090539 5.384479 2.750969
Si 6.789077 9.556958 4.182670
Si 9.555663 6.707710 4.069415
Si 5.453991 5.472314 5.406765
Si 8.246532 8.075001 5.391612
Si 6.822120 6.840932 6.741420
Si 9.638155 9.504293 6.700905
Si 5.428816 8.113171 8.047415
Si 8.138681 5.518139 8.166872
Si 6.765012 9.418156 9.411719
Si 9.526989 6.861684 9.552309
64
Step 5200
Si 10.845643 10.837196 0.034295
Si 2.786746 2.733083 0.070555
Si 1.361292 1.353340 1.387291
Si 4.163783 4.072307 1.380949
Si 0.005549 2.755245 2.680503
Si 2.716295 10.774768 2.686154
Si 1.418863 4.137749 4.054493
Si 3.977768 1.359419 4.035692
Si 0.046603 0.024322 5.436797
Si 2.717370 2.804776 5.435421
Si 1.311217 1.484365 6.789119
Si 4.007905 4.121533 6.853018
Si 0.010917 2.651407 8.268538
Si 2.659344 0.055415 8.076071
Si 1.366317 4.046397 9.534323
Si 4.046373 1.415836 9.460643
Si 0.019626 5.388694 10.848724
Si 2.798862 8.209845 0.032217
Si 1.380982 6.812400 1.296666
Si 4.135149 9.520574 1.407058
Si 10.783053 8.056218 2.651722
Si 2.694404 5.451260 2.621519
Si 1.334128 9.459409 4.034421
Si 4.021645 6.894507 4.021758
Si 0.042688 5.364336 5.467374
Si 2.662441 8.157752 5.409906
Si 1.355342 6.773574 6.824392
Si 3.988444 9.560131 6.741120
Si 10.857946 8.229155 8.124767
Si 2.678575 5.439297 8.234961
Si 1.427778 9.543823 9.561741
Si 4.041783 6.795215 9.556755
Si 5.418816 0.002670 10.841412
Si 8.151013 2.649377 10.820503
Si 6.824528 1.229042 1.355160
Si 9.495295 4.074883 1.329453
Si 5.470277 2.612117 2.670788
Si 8.258502 10.859597 2.809099
Si 6.674266 4.048982 4.084587
Si 9.483258 1.428839 4.161861
Si 5.401641 10.856030 5.373880
Si 8.158458 2.775769 5.549055
Si 6.685211 1.367982 6.780501
Si 9.587037 4.061347 6.873279
Si 5.505112 2.817244 8.169007
Si 8.113939 10.799719 8.050514
Si 6.845057 4.094283 9.535701
Si 9.400927 1.233878 9.505928
Si 5.421875 5.458869 10.855385
Si 8.121864 8.166667 10.818245
Si 6.735078 6.807481 1.345965
Si 9.496715 9.498884 1.367187
Si 5.569262 8.235442 2.771669
Si 8.083056 5.410720 2.704942
Si 6.951785 9.474272 4.189514
Si 9.559930 6.655898 4.046443
Si 5.317054 5.423368 5.343452
Si 8.250862 8.002889 5.495396
Si 6.734967 6.706285 6.798181
Si 9.590690 9.475107 6.712333
Si 5.368836 8.168230 8.014868
Si 8.183511 5.425575 8.135730
Si 6.717398 9.535923 9.452616
Si 9.480924 6.805300 9.464378
64
Step 5250
Si 0.010415 10.824787 0.011694
Si 2.779834 2.710704 10.828862
Si 1.342684 1.331315 1.313316
Si 4.073610 4.039984 1.358141
Si 0.041741 2.699757 2.741506
Si 2.728870 0.081979 2.649279
Si 1.366705 4.130480 4.046178
Si 4.074179 1.314128 4.094904
Si 10.762715 10.819168 5.491388
Si 2.677960 2.692996 5.433122
Si 1.301320 1.334359 6.738543
Si 4.088391 4.047792 6.792991
Si 0.048372 2.692955 8.206715
Si 2.745571 0.040444 8.178766
Si 1.417652 4.089071 9.534834
Si 4.175849 1.385423 9.421524
Si 0.017981 5.466394 0.002407
Si 2.732697 8.182340 10.844572
Si 1.351090 6.831035 1.363578
Si 4.141635 9.584237 1.329089
Si 10.777316 8.092812 2.812824
Si 2.736277 5.421525 2.720098
Si 1.341734 9.596967 3.983191
Si 4.076099 6.799258 4.133672
Si 10.817555 5.408540 5.459139
Si 2.677981 8.216364 5.422954
Si 1.362925 6.829006 6.778635
Si 4.049235 9.501711 6.839240
Si 0.009943 8.146984 8.143415
Si 2.760445 5.469720 8.150251
Si 1.395212 9.518034 9.421317
Si 4.072022 6.824835 9.440786
Si 5.485218 0.083388 10.831337
Si 8.237776 2.736243 0.030468
Si 6.816595 1.456255 1.399283
Si 9.601115 4.040776 1.366942
Si 5.445888 2.709036 2.827516
Si 8.192016 0.029781 2.682127
Si 6.755665 4.075780 4.139656
Si 9.489418 1.316076 4.087100
Si 5.410438 10.775345 5.380599
Si 8.148444 2.669904 5.453782
Si 6.792889 1.352724 6.687836
Si 9.489364 4.047217 6.827102
Si 5.496518 2.752344 8.087713
Si 8.001026 0.049526 8.140760
Si 6.771155 4.068701 9.540088
Si 9.521271 1.315150 9.504203
Si 5.413116 5.445522 10.853955
Si 8.091748 8.114375 10.828900
Si 6.828532 6.773318 1.394675
Si 9.517778 9.392247 1.365324
Si 5.414133 8.068585 2.730509
Si 8.159617 5.369752 2.666332
Si 6.809919 9.473501 4.016909
Si 9.408276 6.756736 4.058292
Si 5.447961 5.388573 5.419452
Si 8.053845 8.182517 5.479925
Si 6.719101 6.722369 6.814648
Si 9.431977 9.453328 6.934091
Si 5.428008 8.211068 8.099648
Si 8.142971 5.424308 8.185388
Si 6.750836 9.524942 9.452123
Si 9.493343 6.817526 9.472376
64
Step 5300
Si 10.856467 0.008707 10.854197
Si 2.684905 2.771134 10.753572
Si 1.376092 1.302075 1.269133
Si 3.995645 4.104579 1.360221
Si 0.053403 2.651098 2.754882
Si 2.674121 0.022709 2.698578
Si 1.296745 4.041098 4.120453
Si 4.082801 1.380743 4.095373
Si 10.837944 10.841269 5.419245
Si 2.661175 2.617988 5.429995
Si 1.322194 1.249772 6.800391
Si 4.046809 4.020283 6.690113
Si 0.002358 2.776087 8.058718
Si 2.761715 10.827572 8.214839
Si 1.375210 4.120070 9.461720
Si 4.124790 1.348907 9.540919
Si 0.099586 5.486089 0.045043
Si 2.655890 8.124812 0.028472
Si 1.408167 6.848606 1.453022
Si 4.016501 9.478353 1.259332
Si 0.021005 8.175212 2.808881
Si 2.697141 5.421719 2.812223
Si 1.336657 9.545609 4.108535
Si 4.078529 6.769502 4.068932
Si 10.805561 5.485547 5.437026
Si 2.682514 8.178801 5.373764
Si 1.326894 6.775289 6.711904
Si 4.116688 9.450787 6.759776
Si 10.828071 8.072610 8.152040
Si 2.751653 5.474009 8.042944
Si 1.319012 9.455274 9.456831
Si 4.032236 6.761644 9.516778
Si 5.457622 0.086246 0.094248
Si 8.164370 2.773262 0.042621
Si 6.806902 1.476134 1.386778
Si 9.581309 4.096688 1.384642
Si 5.397617 2.819282 2.732898
Si 8.072466 10.811956 2.643498
Si 6.880247 4.096021 4.094638
Si 9.526671 1.247943 3.977336
Si 5.438948 10.860197 5.413241
Si 8.208350 2.637225 5.364911
Si 6.897145 1.321722 6.770395
Si 9.475714 4.077789 6.781516
Si 5.407928 2.666011 8.131331
Si 8.212707 0.061573 8.221421
Si 6.804151 4.066889 9.518608
Si 9.648032 1.479781 9.506390
Si 5.393370 5.385048 0.001965
Si 8.149976 8.105170 0.054750
Si 6.771750 6.704734 1.363864
Si 9.505613 9.470387 1.350066
Si 5.292678 8.092502 2.619539
Si 8.259569 5.471603 2.736165
Si 6.658642 9.473304 3.910214
Si 9.494884 6.905774 4.128857
Si 5.511222 5.453201 5.478181
Si 7.990847 8.233980 5.363843
Si 6.853338 6.860103 6.819318
Si 9.431499 9.495529 6.768893
Si 5.454651 8.119841 8.266855
Si 8.127936 5.404263 8.179760
Si 6.850485 9.515111 9.600221
Si 9.528854 6.726799 9.595177
64
Step 5350
Si 0.032477 0.046896 10.842031
Si 2.649274 2.758176 10.804460
Si 1.406536 1.352010 1.352469
Si 4.042681 4.080154 1.395718
Si 10.829064 2.675617 2.650723
Si 2.744307 10.843230 2.748110
Si 1.297857 3.917631 4.166730
Si 4.093668 1.400124 3.993918
Si 0.068002 0.013561 5.413736
Si 2.786757 2.713478 5.458620
Si 1.443056 1.328592 6.858858
Si 4.157143 4.056945 6.785406
Si 10.839343 2.728854 8.096188
Si 2.728697 10.737281 8.111480
Si 1.370783 4.101971 9.432187
Si 3.980565 1.332153 9.485312
Si 10.846458 5.382214 0.026408
Si 2.665526 8.118967 10.804498
Si 1.362810 6.752914 1.419001
Si 3.999309 9.443979 1.320213
Si 0.045382 8.253092 2.638066
Si 2.663014 5.372647 2.804266
Si 1.465975 9.437243 4.167733
Si 4.113369 6.726935 4.065908
Si 0.005177 5.452506 5.411183
Si 2.890077 8.107756 5.517414
Si 1.331945 6.830367 6.805355
Si 4.158073 9.530250 6.813938
Si 10.771595 8.125837 8.122078
Si 2.737989 5.388287 8.050076
Si 1.265281 9.476801 9.497923
Si 4.096592 6.770478 9.490013
Si 5.387661 10.822666 10.861113
Si 8.094556 2.788180 0.001700
Si 6.747713 1.341918 1.335507
Si 9.479744 4.140225 1.405633
Si 5.429033 2.798771 2.666403
Si 8.093649 10.826507 2.689512
Si 6.822694 4.093900 4.011988
Si 9.498104 1.414454 4.028073
Si 5.403237 0.086630 5.498033
Si 8.095777 2.723935 5.404749
Si 6.799031 1.318867 6.856202
Si 9.480474 4.075107 6.733546
Si 5.403730 2.666842 8.153382
Si 8.226910 10.837223 8.151472
Si 6.789655 4.020155 9.452020
Si 9.472281 1.396824 9.486652
Si 5.409974 5.370095 10.824554
Si 8.139239 8.141828 0.013756
Si 6.730012 6.718452 1.326090
Si 9.478049 9.632304 1.297200
Si 5.402843 8.177029 2.644196
Si 8.124752 5.485381 2.786374
Si 6.706458 9.536811 4.145798
Si 9.523194 6.861375 4.069991
Si 5.464405 5.437614 5.456074
Si 8.173541 8.159959 5.464517
Si 6.787897 6.865604 6.835607
Si 9.519271 9.584374 6.730056
Si 5.490287 8.150498 8.260864
Si 8.125547 5.453561 8.150010
Si 6.859894 9.538326 9.583551
Si 9.535582 6.723658 9.571352
64
Step 5400
Si 10.834663 0.040084 0.006421
Si 2.696582 2.654832 0.052533
Si 1.345199 1.412731 1.472753
Si 4.093068 4.055105 1.333867
Si 10.760344 2.732901 2.755788
Si 2.789386 10.817946 2.714904
Si 1.376895 4.136706 4.034877
Si 4.077526 1.333118 4.083799
Si 0.060625 0.025535 5.338852
Si 2.744824 2.789072 5.439826
Si 1.348469 1.456808 6.739918
Si 4.148721 4.117563 6.864501
Si 10.827238 2.671146 8.160325
Si 2.603589 0.046512 8.107738
Si 1.310847 3.994235 9.530180
Si 4.006057 1.311093 9.537377
Si 10.752349 5.396595 10.827808
Si 2.721361 8.075046 10.858102
Si 1.255955 6.727365 1.328866
Si 4.106871 9.436420 1.433992
Si 0.070663 8.177219 2.656515
Si 2.731243 5.446055 2.624547
Si 1.418387 9.471774 4.014584
Si 4.090340 6.763822 4.066643
Si 0.012824 5.419991 5.421521
Si 2.760534 8.102452 5.453449
Si 1.434206 6.759751 6.808961
Si 4.047192 9.552669 6.847163
Si 0.024265 8.168580 8.124277
Si 2.661922 5.373750 8.228634
Si 1.342575 9.488849 9.550159
Si 4.072107 6.812908 9.491271
Si 5.350530 10.772002 10.822957
Si 8.110704 2.666672 10.840170
Si 6.761286 1.257661 1.311723
Si 9.414105 4.028571 1.359433
Si 5.423663 2.641341 2.641401
Si 8.177337 0.038406 2.742474
Si 6.757853 4.082275 4.014084
Si 9.465090 1.424679 4.153915
Si 5.479844 10.812817 5.382491
Si 8.140316 2.756460 5.463794
Si 6.687197 1.408516 6.780875
Si 9.520219 4.090234 6.790506
Si 5.460075 2.685559 8.212247
Si 8.109491 10.825841 8.095679
Si 6.783254 4.081321 9.533201
Si 9.389575 1.338073 9.497984
Si 5.428680 5.470123 10.844197
Si 8.174050 8.210902 0.025480
Si 6.768506 6.917035 1.352928
Si 9.523846 9.566164 1.463652
Si 5.541716 8.198393 2.826094
Si 8.043700 5.479430 2.722282
Si 6.927084 9.513988 4.114276
Si 9.559143 6.783438 4.040992
Si 5.400710 5.496330 5.408151
Si 8.316149 8.110663 5.440106
Si 6.834435 6.737964 6.733303
Si 9.635934 9.538062 6.762481
Si 5.473940 8.123827 8.105965
Si 8.193101 5.420756 8.106648
Si 6.756003 9.503837 9.488338
Si 9.449612 6.834052 9.458014
64
Step 5450
Si 10.856982 10.860994 0.042123
Si 2.710479 2.654149 0.119116
Si 1.245751 1.360958 1.429616
Si 4.137178 4.054436 1.282227
Si 0.038990 2.835925 2.770186
Si 2.693539 0.045910 2.690856
Si 1.479204 4.193502 3.973537
Si 4.059745 1.358603 4.156746
Si 0.016179 0.019705 5.430910
Si 2.712760 2.765359 5.370209
Si 1.332055 1.420794 6.714109
Si 3.965023 4.079034 6.820281
Si 10.803138 2.669283 8.205165
Si 2.681779 0.072278 8.154669
Si 1.261727 4.005809 9.617694
Si 4.087161 1.358169 9.515540
Si 10.768949 5.416367 10.827916
Si 2.714686 8.172087 10.838130
Si 1.348726 6.774156 1.216241
Si 4.096496 9.521335 1.374114
Si 0.013332 8.027964 2.735379
Si 2.770420 5.462469 2.614399
Si 1.324387 9.542166 4.020511
Si 4.066421 6.797672 4.085595
Si 0.082616 5.447776 5.438628
Si 2.589879 8.174124 5.393645
Si 1.427055 6.740358 6.812486
Si 3.987846 9.482959 6.764769
Si 0.148514 8.154124 8.207505
Si 2.687855 5.392040 8.311176
Si 1.418679 9.609536 9.568803
Si 4.039111 6.832528 9.509993
Si 5.434147 10.823791 10.824360
Si 8.142748 2.589427 10.860342
Si 6.741335 1.311979 1.366627
Si 9.464533 4.012478 1.304610
Si 5.406293 2.637661 2.749811
Si 8.225633 0.047218 2.747285
Si 6.735829 4.076838 4.033615
Si 9.502573 1.416355 4.144620
Si 5.399530 10.811600 5.416438
Si 8.085023 2.764148 5.455704
Si 6.738282 1.409548 6.800932
Si 9.522006 4.107136 6.825036
Si 5.423061 2.724053 8.142361
Si 8.114630 10.841324 8.081839
Si 6.773865 4.131910 9.567140
Si 9.503784 1.251902 9.551150
Si 5.478615 5.547690 0.051103
Si 8.191889 8.222913 10.828010
Si 6.921468 6.844436 1.374248
Si 9.579168 9.430254 1.393089
Si 5.494640 8.133828 2.796074
Si 8.141049 5.334613 2.675620
Si 6.874336 9.486077 4.113277
Si 9.501366 6.664661 4.048243
Si 5.396907 5.433276 5.411857
Si 8.249535 8.119570 5.409159
Si 6.827253 6.772224 6.696992
Si 9.586484 9.440876 6.854511
Si 5.346806 8.105002 7.991052
Si 8.135954 5.448268 8.132419
Si 6.731569 9.442707 9.331701
Si 9.484999 6.897690 9.454491
64
Step 5500
Si 0.005198 10.842555 0.062201
Si 2.781927 2.799078 10.821355
Si 1.442210 1.335656 1.334645
Si 4.107441 4.134406 1.314672
Si 0.035389 2.713164 2.719072
Si 2.635446 10.788543 2.743449
Si 1.371737 4.077518 4.050203
Si 4.051016 1.369381 4.034338
Si 10.797784 0.055741 5.489968
Si 2.676458 2.671625 5.452184
Si 1.321869 1.309027 6.882405
Si 4.027585 4.047159 6.797487
Si 10.821732 2.736578 8.134738
Si 2.861834 0.067516 8.139098
Si 1.336050 4.078500 9.504014
Si 4.165392 1.452634 9.530755
Si 0.093189 5.388819 0.018953
Si 2.797321 8.261612 0.039224
Si 1.461931 6.857019 1.348724
Si 4.137282 9.606016 1.348499
Si 10.787525 8.100997 2.728115
Si 2.750143 5.486876 2.782334
Si 1.244575 9.469815 4.146849
Si 4.126477 6.867199 4.039189
Si 0.011235 5.375858 5.529315
Si 2.688950 8.146488 5.402065
Si 1.316508 6.813919 6.859642
Si 4.076450 9.497095 6.702976
Si 10.833846 8.174032 8.182562
Si 2.743181 5.415727 8.109812
Si 1.425730 9.545197 9.449965
Si 4.088999 6.738051 9.544091
Si 5.501575 0.016115 0.001300
Si 8.084483 2.717742 10.844412
Si 6.849624 1.319632 1.406875
Si 9.523485 4.044649 1.320459
Si 5.453790 2.726890 2.717596
Si 8.132963 10.834460 2.769692
Si 6.765215 4.018987 4.153105
Si 9.460733 1.328032 4.020694
Si 5.411177 0.040406 5.461966
Si 8.150255 2.720759 5.467405
Si 6.833897 1.356790 6.867490
Si 9.451216 4.074524 6.829637
Si 5.450102 2.761425 8.106667
Si 8.173269 10.838093 8.109190
Si 6.821423 4.094910 9.424481
Si 9.524956 1.330451 9.508257
Si 5.511919 5.371596 10.839593
Si 8.113833 8.139902 10.782628
Si 6.799495 6.741755 1.344103
Si 9.413950 9.451788 1.284038
Si 5.424889 8.164671 2.582514
Si 8.188569 5.359932 2.732168
Si 6.713071 9.518037 4.055080
Si 9.515795 6.734050 4.087986
Si 5.370087 5.377536 5.425501
Si 8.070475 8.156981 5.411426
Si 6.718795 6.803160 6.779689
Si 9.428209 9.495978 6.748279
Si 5.340962 8.156388 8.105980
Si 8.069747 5.466675 8.165546
Si 6.769871 9.494593 9.447709
Si 9.523733 6.703312 9.539626
64
Step 5550
Si 0.061802 10.831973 10.820889
Si 2.754749 2.786103 10.832792
Si 1.439513 1.348426 1.274784
Si 4.023774 4.100265 1.469747
Si 0.026785 2.606186 2.636955
Si 2.681620 10.848270 2.765055
Si 1.240611 3.974456 4.145704
Si 4.046524 1.361755 3.999878
Si 10.843926 10.797654 5.440826
Si 2.644566 2.636492 5.417117
Si 1.367824 1.308177 6.848478
Si 4.090990 4.085615 6.693999
Si 0.057751 2.710537 8.160513
Si 2.695522 10.818692 8.207255
Si 1.430021 4.166003 9.451604
Si 4.098353 1.366044 9.499980
Si 0.116154 5.470364 0.055707
Si 2.703651 8.128090 0.015863
Si 1.364522 6.869519 1.510063
Si 4.013312 9.498452 1.321515
Si 10.801634 8.169038 2.734179
Si 2.609333 5.416538 2.814999
Si 1.329457 9.460648 4.078129
Si 4.027751 6.814940 4.053328
Si 10.791130 5.445999 5.388195
Si 2.761408 8.121509 5.456858
Si 1.266176 6.851244 6.787931
Si 4.103303 9.584069 6.817293
Si 10.758437 8.191991 8.160924
Si 2.735762 5.511054 8.019950
Si 1.289811 9.426216 9.463725
Si 4.095752 6.789493 9.477206
Si 5.462942 0.072268 0.018130
Si 8.292193 2.817361 0.015409
Si 6.846897 1.486983 1.363285
Si 9.603323 4.108696 1.457877
Si 5.434507 2.762879 2.725020
Si 8.150021 10.823849 2.669585
Si 6.808866 4.046055 4.105174
Si 9.531607 1.303195 3.969293
Si 5.413443 0.079855 5.369660
Si 8.208695 2.677822 5.400719
Si 6.851955 1.273292 6.736619
Si 9.537969 4.045901 6.737233
Si 5.466722 2.750357 8.094605
Si 8.167490 0.020674 8.248850
Si 6.881011 4.030971 9.487558
Si 9.546378 1.396002 9.552171
Si 5.336336 5.359494 10.839106
Si 8.128700 8.029842 0.067938
Si 6.770978 6.640509 1.369920
Si 9.483137 9.514611 1.261937
Si 5.429497 8.141306 2.645764
Si 8.201625 5.475124 2.745799
Si 6.713628 9.526117 4.039224
Si 9.494753 6.862776 4.068392
Si 5.434248 5.422058 5.408651
Si 8.026207 8.115639 5.392221
Si 6.665565 6.800435 6.804803
Si 9.409828 9.491317 6.757366
Si 5.456971 8.186691 8.253352
Si 8.151523 5.478752 8.127127
Si 6.813362 9.480039 9.625644
Si 9.591671 6.729341 9.542121
64
Step 5600
Si 10.838479 0.014479 10.802803
Si 2.692822 2.618310 10.817370
Si 1.311365 1.366558 1.330831
Si 3.990098 4.047106 1.364661
Si 0.014467 2.658781 2.754351
Si 2.814997 10.851742 2.624636
Si 1.346150 4.069890 4.155853
Si 4.070569 1.352819 4.090239
Si 0.000150 10.767307 5.442881
Si 2.729615 2.679177 5.476649
Si 1.347695 1.337954 6.718580
Si 4.134763 4.042314 6.781905
Si 0.089610 2.767950 8.157190
Si 2.651786 10.840859 8.181071
Si 1.433219 4.091868 9.476838
Si 4.107555 1.340329 9.436596
Si 10.814325 5.458180 10.797311
Si 2.694865 8.031524 0.012313
Si 1.287005 6.711236 1.355885
Si 4.082504 9.411729 1.336613
Si 0.108701 8.188200 2.753037
Si 2.704102 5.366322 2.721528
Si 1.472414 9.609760 4.059526
Si 3.985626 6.788174 4.161967
Si 10.812290 5.468636 5.424118
Si 2.758790 8.188968 5.489162
Si 1.405313 6.788565 6.665792
Si 4.077172 9.514296 6.856052
Si 10.846751 8.047047 8.074223
Si 2.721309 5.449512 8.138204
Si 1.337585 9.401179 9.529805
Si 4.071429 6.799047 9.477753
Si 5.395794 0.082611 0.004006
Si 8.177588 2.785052 10.842942
Si 6.760104 1.430023 1.252211
Si 9.560141 4.123015 1.374873
Si 5.415133 2.766647 2.676159
Si 8.131295 0.056427 2.613726
Si 6.846160 4.065079 4.076200
Si 9.536828 1.267546 4.103748
Si 5.486720 10.858951 5.453129
Si 8.202434 2.647063 5.419061
Si 6.747526 1.385615 6.718968
Si 9.537430 4.019236 6.793939
Si 5.450645 2.716820 8.173005
Si 8.062975 0.069621 8.206101
Si 6.742482 4.074659 9.479042
Si 9.522881 1.432026 9.473925
Si 5.361066 5.466034 0.002855
Si 8.150190 8.120176 0.085723
Si 6.735899 6.795342 1.369379
Si 9.555146 9.541252 1.419360
Si 5.357136 8.078951 2.791171
Si 8.100116 5.471846 2.665330
Si 6.811609 9.532636 3.957661
Si 9.419465 6.875444 4.108519
Si 5.470266 5.452942 5.446056
Si 8.094617 8.234126 5.477025
Si 6.848135 6.759620 6.848342
Si 9.455343 9.527756 6.872916
Si 5.522025 8.140440 8.212472
Si 8.171137 5.368334 8.119449
Si 6.819255 9.573379 9.608186
Si 9.382908 6.795537 9.472771
64
Step 5650
Si 10.815814 10.843244 0.033804
Si 2.635710 2.687384 0.009197
Si 1.276093 1.342405 1.433875
Si 4.066544 4.055058 1.285424
Si 10.832892 2.815891 2.746122
Si 2.763418 0.034698 2.702081
Si 1.448890 4.082215 4.011554
Si 4.165254 1.377925 4.069290
Si 0.016332 0.020599 5.453337
Si 2.810240 2.756566 5.422923
Si 1.421408 1.370154 6.767136
Si 4.060823 4.094401 6.814568
Si 10.823282 2.686255 8.120142
Si 2.707997 10.770834 8.086245
Si 1.288633 4.052068 9.507749
Si 3.966747 1.306509 9.507423
Si 10.736258 5.336853 0.037184
Si 2.676344 8.174818 10.846955
Si 1.329354 6.713382 1.280338
Si 4.052310 9.519556 1.404976
Si 0.036371 8.122145 2.699404
Si 2.788969 5.400939 2.645061
Si 1.379305 9.475113 4.050710
Si 4.136593 6.711974 4.109947
Si 0.029539 5.445893 5.399060
Si 2.740267 8.112761 5.451949
Si 1.344724 6.757386 6.817021
Si 4.138585 9.426477 6.785400
Si 0.009162 8.124224 8.192158
Si 2.705811 5.373797 8.226245
Si 1.361008 9.545624 9.532791
Si 4.091705 6.790263 9.516329
Si 5.426488 10.797644 10.843749
Si 8.013956 2.698355 10.830822
Si 6.713361 1.279582 1.371308
Si 9.376012 4.007628 1.304027
Si 5.445497 2.734642 2.706717
Si 8.150255 0.024491 2.688009
Si 6.786239 4.118092 4.030066
Si 9.532092 1.378351 4.151597
Si 5.438744 10.821899 5.484568
Si 8.096599 2.751573 5.381188
Si 6.699171 1.388144 6.793494
Si 9.491159 4.122869 6.769049
Si 5.393646 2.723423 8.191333
Si 8.184124 0.019654 8.088865
Si 6.726868 4.163016 9.525984
Si 9.473651 1.363094 9.483292
Si 5.479293 5.479022 0.082228
Si 8.163456 8.292579 10.850169
Si 6.824665 6.883895 1.399816
Si 9.575009 9.474811 1.458659
Si 5.428009 8.184625 2.739096
Si 8.131913 5.422645 2.741500
Si 6.822127 9.529404 4.104682
Si 9.529453 6.753753 4.056112
Si 5.504454 5.398635 5.427925
Si 8.241699 8.197496 5.415993
Si 6.877981 6.851377 6.713846
Si 9.540844 9.523974 6.839779
Si 5.460341 8.134985 8.103104
Si 8.139711 5.401445 8.119200
Si 6.810623 9.498375 9.384734
Si 9.450152 6.837132 9.536686
64
Step 5700
Si 0.006874 0.084021 0.069737
Si 2.665692 2.771216 0.023029
Si 1.426473 1.395981 1.427623
Si 4.114189 4.116908 1.278736
Si 10.808609 2.756260 2.730026
Si 2.612199 10.814347 2.838905
Si 1.396893 4.078387 3.981620
Si 4.068609 1.332773 4.050126
Si 0.084647 0.085882 5.370624
Si 2.743300 2.782821 5.391818
Si 1.388365 1.390363 6.833061
Si 3.999871 4.146015 6.862955
Si 10.757582 2.644503 8.066901
Si 2.765936 0.017221 8.127232
Si 1.209836 4.021466 9.503989
Si 3.991317 1.378361 9.578610
Si 10.837789 5.361362 0.063070
Si 2.723478 8.204861 0.005781
Si 1.411410 6.797339 1.326525
Si 3.992364 9.591349 1.399151
Si 10.848755 8.127834 2.647431
Si 2.768686 5.515350 2.669538
Si 1.331438 9.370453 4.138889
Si 4.180091 6.830349 3.933272
Si 0.110136 5.335085 5.480161
Si 2.655488 8.003043 5.371044
Si 1.332004 6.783192 6.935262
Si 4.045745 9.418851 6.699281
Si 0.015338 8.202300 8.223584
Si 2.667203 5.416067 8.243175
Si 1.327202 9.580955 9.524349
Si 4.069518 6.799142 9.556728
Si 5.383737 10.761977 10.823400
Si 8.047400 2.592123 10.819825
Si 6.795836 1.202137 1.392564
Si 9.410305 3.988849 1.334108
Si 5.413639 2.627034 2.683618
Si 8.179115 0.011077 2.830487
Si 6.731004 4.066587 4.060003
Si 9.513248 1.452698 4.126747
Si 5.433143 0.046439 5.436630
Si 8.112926 2.770221 5.491172
Si 6.771345 1.415256 6.872848
Si 9.475731 4.132305 6.782572
Si 5.326125 2.712501 8.176640
Si 8.208343 10.814576 8.030560
Si 6.781562 4.107068 9.500209
Si 9.461673 1.285719 9.519575
Si 5.530142 5.461574 10.822403
Si 8.130374 8.171202 10.792341
Si 6.840051 6.862944 1.338946
Si 9.489923 9.466146 1.345405
Si 5.514286 8.264857 2.689354
Si 8.198246 5.435614 2.740530
Si 6.820328 9.507790 4.149511
Si 9.672937 6.712455 4.033138
Si 5.363827 5.465614 5.420697
Si 8.302125 8.072896 5.351889
Si 6.811564 6.782316 6.718779
Si 9.644361 9.549911 6.711601
Si 5.366708 8.088452 8.101689
Si 8.162152 5.492961 8.146410
Si 6.749076 9.481636 9.417386
Si 9.585702 6.765031 9.570724
64
Step 5750
Si 0.009618 0.042733 0.001629
Si 2.794896 2.741157 0.036727
Si 1.364678 1.375017 1.335904
Si 4.181615 4.060412 1.374573
Si 0.023985 2.678415 2.750657
Si 2.738670 0.008224 2.686726
Si 1.403147 4.102054 4.127452
Si 4.044238 1.353810 4.116989
Si 10.857144 10.831087 5.455572
Si 2.711095 2.678094 5.471081
Si 1.321682 1.377298 6.812569
Si 4.063256 4.127895 6.779267
Si 0.039318 2.693525 8.193641
Si 2.729007 0.053407 8.164719
Si 1.374398 4.016168 9.568676
Si 4.161777 1.411684 9.473080
Si 0.022489 5.496868 10.847471
Si 2.735155 8.165348 10.844706
Si 1.366028 6.798352 1.378589
Si 4.157308 9.453213 1.274559
Si 10.811636 8.145407 2.688856
Si 2.736168 5.450862 2.729698
Si 1.388564 9.520999 4.091811
Si 4.023909 6.868357 4.042501
Si 10.859063 5.410099 5.437600
Si 2.706740 8.233217 5.428713
Si 1.383533 6.775247 6.756303
Si 4.029709 9.604410 6.795812
Si 0.028728 8.194607 8.140247
Si 2.672496 5.493997 8.155659
Si 1.365913 9.564597 9.499549
Si 4.067073 6.828203 9.480158
Si 5.445586 0.046597 10.791876
Si 8.229953 2.641179 0.026501
Si 6.822043 1.393046 1.377840
Si 9.511093 4.064754 1.372429
Si 5.427141 2.668422 2.735767
Si 8.177532 0.028054 2.766117
Si 6.723790 4.036682 4.038177
Si 9.450048 1.392674 4.092817
Si 5.425974 10.841062 5.409375
Si 8.042153 2.722920 5.480637
Si 6.796345 1.367140 6.812874
Si 9.493186 4.014939 6.849710
Si 5.409153 2.760168 8.108198
Si 8.016009 10.787949 8.123142
Si 6.836480 4.014532 9.487710
Si 9.433381 1.265417 9.467352
Si 5.456167 5.400275 10.781850
Si 8.129549 8.096623 0.008917
Si 6.823917 6.735283 1.330578
Si 9.482844 9.568939 1.272296
Si 5.519058 8.136242 2.705495
Si 8.097461 5.353734 2.680468
Si 6.881878 9.510738 4.104554
Si 9.430210 6.738347 4.071693
Si 5.392359 5.424924 5.392886
Si 8.116010 8.064613 5.481259
Si 6.732611 6.745667 6.810633
Si 9.470230 9.435524 6.795733
Si 5.427202 8.153147 8.066715
Si 8.134994 5.490348 8.177545
Si 6.714008 9.475890 9.532824
Si 9.500570 6.791430 9.488531
64
Step 5800
Si 10.841902 10.772341 10.851780
Si 2.749942 2.698887 0.012088
Si 1.355454 1.334053 1.347862
Si 4.034022 4.072220 1.449717
Si 0.085698 2.683243 2.741400
Si 2.758019 10.856854 2.618716
Si 1.314027 4.093860 4.163278
Si 4.014465 1.308666 4.068351
Si 10.734277 10.749021 5.480854
Si 2.640424 2.668486 5.474255
Si 1.241448 1.319143 6.765767
Si 4.033387 4.048200 6.728687
Si 0.101728 2.813900 8.242225
Si 2.677715 0.032349 8.186113
Si 1.464493 4.140051 9.528233
Si 4.197206 1.393878 9.500477
Si 0.077131 5.510256 10.844804
Si 2.730175 8.122571 0.057164
Si 1.318254 6.853154 1.412319
Si 4.157421 9.416745 1.345331
Si 10.832639 8.142712 2.813401
Si 2.654966 5.413377 2.772293
Si 1.335197 9.652484 3.957287
Si 4.014777 6.819881 4.141525
Si 10.722601 5.506576 5.391747
Si 2.674175 8.344603 5.387335
Si 1.335475 6.790622 6.636302
Si 4.064465 9.600105 6.831843
Si 0.004619 8.080920 8.089928
Si 2.683743 5.486171 8.024683
Si 1.405276 9.420530 9.504926
Si 4.059781 6.755637 9.465663
Si 5.482632 0.033106 0.039175
Si 8.284762 2.832938 0.031754
Si 6.843224 1.474803 1.339693
Si 9.688423 4.088928 1.386273
Si 5.395878 2.767173 2.725276
Si 8.209684 0.030463 2.663264
Si 6.824592 4.082203 4.141995
Si 9.496534 1.280524 4.033118
Si 5.428736 10.793009 5.355359
Si 8.210915 2.662786 5.427267
Si 6.804923 1.311221 6.687137
Si 9.575163 4.047059 6.782999
Si 5.556323 2.793535 8.088409
Si 8.103395 0.026953 8.205984
Si 6.849056 4.061735 9.530211
Si 9.531519 1.395741 9.478825
Si 5.345758 5.392682 10.860253
Si 8.178671 8.134058 0.062931
Si 6.741175 6.691943 1.351323
Si 9.556401 9.486553 1.424227
Si 5.347967 8.062328 2.703146
Si 8.154715 5.393497 2.682987
Si 6.751265 9.468634 3.940913
Si 9.400540 6.801519 4.057104
Si 5.407390 5.436694 5.406478
Si 8.035936 8.174489 5.463879
Si 6.755378 6.735278 6.845817
Si 9.394692 9.436629 6.811965
Si 5.399506 8.178815 8.185311
Si 8.205815 5.335319 8.163347
Si 6.832925 9.483857 9.558776
Si 9.475172 6.788050 9.450443
64
Step 5850
Si 0.026392 10.811114 10.797573
Si 2.723888 2.705249 10.778592
Si 1.413328 1.319893 1.271088
Si 3.969667 4.065046 1.440380
Si 0.033632 2.694817 2.629085
Si 2.670171 10.859875 2.741958
Si 1.299490 3.983979 4.061679
Si 4.095818 1.399152 4.013536
Si 10.825668 0.046270 5.461278
Si 2.686558 2.651404 5.409403
Si 1.421695 1.229876 6.839097
Si 4.101782 3.975072 6.793018
Si 10.854275 2.697931 8.121748
Si 2.764848 10.812528 8.200643
Si 1.390096 4.136135 9.399016
Si 4.042856 1.319572 9.528722
Si 0.062799 5.404126 0.026863
Si 2.721496 8.115031 10.795482
Si 1.408528 6.821358 1.405939
Si 4.047506 9.580377 1.353068
Si 0.019620 8.202095 2.751866
Si 2.681709 5.447898 2.769419
Si 1.323854 9.505646 4.148875
Si 4.119658 6.715560 4.134679
Si 10.859593 5.441988 5.427927
Si 2.760989 8.066523 5.477883
Si 1.275797 6.882913 6.832389
Si 4.103188 9.458229 6.787603
Si 10.776526 8.175473 8.193765
Si 2.745277 5.434259 8.060814
Si 1.342941 9.456821 9.462415
Si 4.114445 6.755151 9.465972
Si 5.485719 0.053623 0.011240
Si 8.120146 2.788288 10.825627
Si 6.767956 1.394692 1.342727
Si 9.542387 4.132890 1.350243
Si 5.435222 2.788209 2.688743
Si 8.097027 0.007135 2.654177
Si 6.856379 4.088701 4.120704
Si 9.509118 1.303974 3.992323
Si 5.417174 0.069827 5.417715
Si 8.223428 2.713737 5.397517
Si 6.802511 1.346957 6.770248
Si 9.496276 4.072497 6.785569
Si 5.437288 2.629723 8.166586
Si 8.273174 0.092716 8.203066
Si 6.753821 4.071304 9.474004
Si 9.615007 1.421845 9.566042
Si 5.386913 5.406747 0.068741
Si 8.120358 8.101854 10.855961
Si 6.741001 6.757594 1.350848
Si 9.484034 9.455847 1.323804
Si 5.349437 8.145255 2.645732
Si 8.179929 5.431820 2.742126
Si 6.654701 9.485558 4.041653
Si 9.468983 6.843571 4.097035
Si 5.448832 5.416705 5.501241
Si 8.026525 8.208514 5.420348
Si 6.759728 6.832488 6.817222
Si 9.441669 9.527656 6.771564
Si 5.435949 8.213928 8.222992
Si 8.154536 5.463394 8.126730
Si 6.878532 9.521693 9.517615
Si 9.536120 6.761920 9.594074
64
Step 5900
Si 10.852196 0.097796 0.047825
Si 2.680137 2.724526 10.841618
Si 1.364885 1.366167 1.414162
Si 4.106761 4.093719 1.269014
Si 10.787989 2.723511 2.684436
Si 2.725295 10.808905 2.773021
Si 1.324076 4.038353 4.018794
Si 4.081469 1.390193 4.057335
Si 0.118505 0.049638 5.330412
Si 2.765839 2.733080 5.404874
Si 1.458131 1.373996 6.779594
Si 4.061896 4.064284 6.825662
Si 10.787269 2.665743 8.025232
Si 2.737486 10.811655 8.077483
Si 1.281361 4.007200 9.492330
Si 3.990362 1.324369 9.480430
Si 10.838855 5.404761 0.023297
Si 2.738864 8.117021 10.843543
Si 1.393788 6.774520 1.366640
Si 3.977956 9.560533 1.381045
Si 0.017481 8.143019 2.678869
Si 2.726022 5.405762 2.715140
Si 1.397196 9.379737 4.149429
Si 4.102447 6.746820 4.073293
Si 0.075504 5.372510 5.456911
Si 2.760015 7.944800 5.509141
Si 1.373302 6.764145 6.847519
Si 4.147003 9.406552 6.719687
Si 10.802294 8.155498 8.122093
Si 2.741155 5.375513 8.248249
Si 1.319938 9.504535 9.564128
Si 4.067992 6.838647 9.513517
Si 5.389831 10.808491 0.036476
Si 8.031227 2.656154 10.813822
Si 6.767985 1.296697 1.365695
Si 9.369864 4.110223 1.344560
Si 5.441695 2.719728 2.713205
Si 8.103194 10.851593 2.699844
Si 6.800638 4.072457 4.023663
Si 9.477850 1.382784 4.053465
Si 5.460508 0.070333 5.498728
Si 8.162703 2.739213 5.389223
Si 6.796332 1.385396 6.855012
Si 9.458821 4.129399 6.803621
Si 5.375836 2.659309 8.172984
Si 8.161208 0.021094 8.082769
Si 6.731345 4.104189 9.478169
Si 9.489209 1.377660 9.500938
Si 5.485824 5.470009 10.808994
Si 8.093644 8.155268 0.015768
Si 6.777945 6.827873 1.380364
Si 9.474297 9.536153 1.354988
Si 5.429800 8.203479 2.724481
Si 8.187297 5.528794 2.755078
Si 6.760357 9.547246 4.129235
Si 9.590738 6.828819 4.136864
Si 5.496788 5.373235 5.464723
Si 8.191001 8.184560 5.370687
Si 6.872718 6.827629 6.779823
Si 9.573970 9.590420 6.753599
Si 5.523481 8.127463 8.123457
Si 8.075639 5.490560 8.169558
Si 6.784222 9.594377 9.483747
Si 9.506529 6.745912 9.565732
64
Step 5950
Si 10.836211 0.018193 0.026836
Si 2.683558 2.685255 0.099160
Si 1.242306 1.405101 1.470874
Si 4.143780 4.066141 1.230087
Si 10.769658 2.776466 2.774872
Si 2.788884 10.850735 2.679778
Si 1.426712 4.166321 4.041321
Si 4.089685 1.322144 4.136325
Si 0.059432 10.786868 5.365194
Si 2.747490 2.817232 5.442117
Si 1.311297 1.415625 6.729627
Si 4.069753 4.197086 6.801943
Si 0.043462 2.698381 8.180476
Si 2.586407 0.026796 8.077180
Si 1.295310 3.966659 9.676974
Si 3.966821 1.330577 9.460535
Si 10.725133 5.458180 10.824777
Si 2.650868 8.161488 0.011016
Si 1.278940 6.693656 1.302992
Si 4.076080 9.399194 1.389933
Si 0.039038 8.099384 2.708402
Si 2.810208 5.379419 2.612550
Si 1.449666 9.487376 4.014646
Si 4.058480 6.775226 4.019809
Si 0.014434 5.413454 5.445230
Si 2.709782 8.105656 5.453610
Si 1.424594 6.706211 6.805652
Si 4.031393 9.568526 6.831636
Si 0.084133 8.142140 8.166706
Si 2.644102 5.377809 8.312869
Si 1.304794 9.558855 9.503297
Si 4.023386 6.866641 9.532792
Si 5.337354 10.751096 10.827636
Si 8.128111 2.643059 0.014945
Si 6.733602 1.312188 1.355243
Si 9.428698 4.022997 1.346823
Si 5.430227 2.693371 2.713136
Si 8.205133 0.027388 2.745612
Si 6.726440 4.087913 3.979214
Si 9.529405 1.413550 4.162468
Si 5.437188 10.785001 5.438287
Si 8.092160 2.776196 5.422826
Si 6.750372 1.387239 6.803680
Si 9.521976 4.036473 6.778357
Si 5.342269 2.770054 8.174218
Si 8.048550 10.790621 8.055451
Si 6.787579 4.071563 9.535418
Si 9.398138 1.292039 9.432859
Si 5.460336 5.489630 10.846808
Si 8.200302 8.295474 0.002257
Si 6.846776 6.901256 1.396818
Si 9.591952 9.536480 1.400261
Si 5.505118 8.122520 2.864977
Si 8.101573 5.451651 2.683486
Si 6.938491 9.520981 4.093627
Si 9.582094 6.747078 4.074609
Si 5.441468 5.460923 5.375461
Si 8.369846 8.136898 5.426354
Si 6.883593 6.762658 6.700637
Si 9.666202 9.498246 6.840342
Si 5.460599 8.106981 8.025505
Si 8.197089 5.416988 8.151869
Si 6.720399 9.493470 9.474330
Si 9.473127 6.921246 9.449261
64
Step 6000
Si 10.848249 0.023374 0.014289
Si 2.710528 2.671843 0.021510
Si 1.375682 1.331303 1.400417
Si 4.112713 4.080076 1.359698
Si 0.035723 2.722734 2.750704
Si 2.741317 10.856565 2.708960
Si 1.459850 4.113058 4.143745
Si 4.046752 1.359899 4.085059
Si 10.832483 0.042383 5.479896
Si 2.737299 2.743513 5.444900
Si 1.322838 1.415874 6.795574
Si 4.089296 4.083089 6.866223
Si 10.823280 2.718473 8.238238
Si 2.752600 0.041039 8.200161
Si 1.345780 4.093083 9.498261
Si 4.141803 1.407393 9.547003
Si 10.810204 5.412243 0.027204
Si 2.748499 8.140567 0.000899
Si 1.346092 6.801306 1.310402
Si 4.156422 9.517749 1.321997
Si 0.065525 8.126957 2.756844
Si 2.712250 5.475966 2.670791
Si 1.349698 9.566134 4.039905
Si 4.124750 6.859108 4.033200
Si 0.014810 5.413065 5.458819
Si 2.686054 8.271200 5.376907
Si 1.402584 6.797534 6.782913
Si 4.027950 9.563705 6.830534
Si 0.039133 8.156296 8.172140
Si 2.693534 5.459475 8.138810
Si 1.417350 9.544599 9.526862
Si 4.083376 6.727143 9.517190
Si 5.427114 0.003054 10.760330
Si 8.121051 2.727402 10.861694
Si 6.766316 1.284355 1.301928
Si 9.523823 3.959339 1.321232
Si 5.426006 2.625751 2.673665
Si 8.150466 0.009884 2.770012
Si 6.736246 4.030093 4.090957
Si 9.467340 1.377804 4.117206
Si 5.415117 10.816286 5.363703
Si 8.057230 2.699302 5.525231
Si 6.706101 1.346222 6.776856
Si 9.488886 4.043311 6.804323
Si 5.483466 2.740264 8.173794
Si 8.118682 0.015871 8.144899
Si 6.849098 4.089581 9.486108
Si 9.475144 1.315312 9.504321
Si 5.434004 5.426212 0.009103
Si 8.160084 8.221602 10.815218
Si 6.845757 6.812602 1.287317
Si 9.544913 9.522561 1.402835
Si 5.486209 8.142747 2.712202
Si 8.081962 5.375404 2.648066
Si 6.893462 9.511948 4.075949
Si 9.500182 6.706574 4.019455
Si 5.385119 5.487986 5.443603
Si 8.167653 8.033881 5.469731
Si 6.710097 6.786286 6.775004
Si 9.481374 9.464779 6.756620
Si 5.313700 8.111445 8.126146
Si 8.157956 5.396565 8.087377
Si 6.715100 9.437018 9.424643
Si 9.439880 6.801835 9.472410
64
Step 6050
Si 0.072140 10.812867 0.026122
Si 2.725001 2.818882 10.822717
Si 1.474327 1.370052 1.271873
Si 4.013389 4.088084 1.497289
Si 0.087926 2.643861 2.721839
Si 2.627392 10.827460 2.710925
Si 1.351270 4.007079 4.131010
Si 4.062097 1.386844 3.993163
Si 10.798761 0.107375 5.574203
Si 2.640487 2.640239 5.458607
Si 1.371069 1.329905 6.869880
Si 4.074334 3.991347 6.749222
Si 10.797551 2.744571 8.113280
Si 2.829911 10.860147 8.249510
Si 1.356908 4.162453 9.405734
Si 4.127503 1.423647 9.580010
Si 0.106266 5.427651 0.035741
Si 2.736886 8.173860 0.033084
Si 1.409444 6.880141 1.419045
Si 4.080185 9.581060 1.331798
Si 10.767403 8.160935 2.738295
Si 2.670206 5.509106 2.814690
Si 1.248221 9.519837 4.178456
Si 4.105748 6.865799 4.040847
Si 0.008445 5.474738 5.416254
Si 2.682749 8.211836 5.371932
Si 1.249021 6.910076 6.782276
Si 4.030032 9.520337 6.698445
Si 10.792517 8.200278 8.117974
Si 2.680688 5.493069 7.994962
Si 1.379982 9.459654 9.505255
Si 4.088235 6.703063 9.494649
Si 5.554363 0.079078 10.859227
Si 8.214970 2.739118 0.011389
Si 6.874118 1.357233 1.390956
Si 9.601963 4.089520 1.410685
Si 5.426967 2.747028 2.714661
Si 8.121955 10.800113 2.746622
Si 6.800594 4.065157 4.117282
Si 9.504420 1.353043 4.021827
Si 5.405916 0.046672 5.403629
Si 8.130051 2.665983 5.402338
Si 6.836725 1.270425 6.754143
Si 9.481609 4.135445 6.768357
Si 5.524858 2.694869 8.123741
Si 8.244257 10.841178 8.183046
Si 6.819894 4.122269 9.496197
Si 9.605937 1.334883 9.547911
Si 5.436135 5.369238 0.075557
Si 8.139907 8.016122 10.850235
Si 6.839378 6.659050 1.355176
Si 9.410746 9.438612 1.315731
Si 5.390334 8.123808 2.542776
Si 8.183464 5.355904 2.787560
Si 6.721863 9.478235 4.018310
Si 9.441625 6.735306 4.051399
Si 5.382738 5.378492 5.394787
Si 8.014261 8.108564 5.409829
Si 6.668361 6.789697 6.771352
Si 9.375064 9.457637 6.728428
Si 5.352679 8.161652 8.197762
Si 8.121216 5.526563 8.136818
Si 6.893737 9.480376 9.450430
Si 9.617765 6.718501 9.534741
64
Step 6100
Si 0.002327 10.798164 10.859266
Si 2.768440 2.746847 10.813655
Si 1.342648 1.370917 1.313577
Si 4.031747 4.099790 1.336700
Si 0.013059 2.696537 2.697596
Si 2.724326 10.834248 2.658153
Si 1.254552 4.021401 4.083643
Si 4.041016 1.279332 4.050680
Si 0.044548 10.801907 5.404643
Si 2.666635 2.648836 5.452134
Si 1.314978 1.264363 6.815968
Si 4.052474 4.040336 6.755939
Si 0.046655 2.771321 8.087523
Si 2.734193 0.009836 8.183819
Si 1.426145 4.077248 9.492050
Si 4.166265 1.354846 9.453948
Si 0.110444 5.518541 10.818467
Si 2.723699 8.160720 0.016174
Si 1.353520 6.843747 1.429655
Si 4.048465 9.488403 1.304953
Si 10.796818 8.196737 2.721311
Si 2.669160 5.353875 2.778792
Si 1.373738 9.459319 4.044707
Si 3.981749 6.766512 4.109707
Si 10.763625 5.439782 5.426954
Si 2.709219 8.161519 5.463169
Si 1.320209 6.760884 6.772049
Si 4.123345 9.476098 6.815418
Si 10.832862 8.135665 8.113576
Si 2.801233 5.418365 8.131266
Si 1.348775 9.465805 9.465788
Si 4.072273 6.833031 9.451236
Si 5.502079 0.039989 0.100905
Si 8.244598 2.756648 10.858697
Si 6.868862 1.488135 1.341424
Si 9.616645 4.137194 1.334394
Si 5.382913 2.754541 2.733167
Si 8.152605 10.857444 2.653566
Si 6.791028 4.048816 4.096090
Si 9.545342 1.314575 4.080616
Si 5.412121 0.023208 5.474243
Si 8.271447 2.706051 5.388278
Si 6.853601 1.375091 6.795849
Si 9.469399 4.116647 6.781703
Si 5.455285 2.742258 8.099603
Si 8.116147 10.861264 8.231186
Si 6.813591 4.014254 9.545758
Si 9.554999 1.427062 9.539449
Si 5.443249 5.438961 10.748839
Si 8.099302 8.085999 0.061530
Si 6.711002 6.714037 1.422079
Si 9.500951 9.460770 1.349141
Si 5.362058 8.140577 2.693279
Si 8.278123 5.400385 2.758829
Si 6.665671 9.557649 4.021689
Si 9.419367 6.878285 4.125302
Si 5.372385 5.399495 5.419752
Si 7.990434 8.255985 5.377185
Si 6.791917 6.767833 6.815886
Si 9.436561 9.537323 6.829295
Si 5.518827 8.164127 8.166233
Si 8.106067 5.435254 8.166095
Si 6.806507 9.486646 9.580623
Si 9.509740 6.764588 9.532793
64
Step 6150
Si 10.807328 0.058289 10.795588
Si 2.755197 2.606966 10.845223
Si 1.323006 1.321481 1.359987
Si 4.087567 4.008047 1.277046
Si 10.826616 2.754181 2.687802
Si 2.771180 0.035568 2.724520
Si 1.308014 4.130818 4.061969
Si 4.049877 1.390470 4.080376
Si 0.036438 10.718376 5.371884
Si 2.741480 2.709510 5.399287
Si 1.360035 1.322556 6.691491
Si 4.060304 4.076896 6.745531
Si 0.079446 2.682836 8.199862
Si 2.642872 10.850587 8.072122
Si 1.403910 3.998118 9.564064
Si 4.074580 1.307394 9.446156
Si 10.784011 5.443235 10.783953
Si 2.685791 8.139142 10.797884
Si 1.374018 6.692928 1.312710
Si 4.115782 9.452741 1.370053
Si 0.078026 8.087971 2.713486
Si 2.715180 5.319566 2.638432
Si 1.480587 9.487286 4.045397
Si 4.030450 6.652851 4.113957
Si 10.842213 5.453095 5.446726
Si 2.758099 8.074164 5.519434
Si 1.422282 6.709773 6.816734
Si 4.116472 9.515411 6.869442
Si 10.849705 8.089539 8.124644
Si 2.755681 5.380418 8.227604
Si 1.314930 9.504889 9.468298
Si 4.078602 6.822622 9.529280
Si 5.389402 10.854657 10.851465
Si 8.170764 2.711506 0.007278
Si 6.716487 1.402650 1.375671
Si 9.469017 4.149520 1.345234
Si 5.414066 2.715762 2.732808
Si 8.134786 0.090291 2.695802
Si 6.798022 4.080718 4.023649
Si 9.524848 1.310608 4.112038
Si 5.446409 0.039496 5.418584
Si 8.172577 2.726653 5.409024
Si 6.778275 1.436564 6.810084
Si 9.527498 3.990574 6.810398
Si 5.371654 2.710771 8.140538
Si 8.057064 0.050702 8.135278
Si 6.760990 4.083178 9.491860
Si 9.454848 1.401941 9.472712
Si 5.420141 5.493715 0.013681
Si 8.122325 8.187869 0.098808
Si 6.683963 6.898431 1.403567
Si 9.585879 9.569875 1.399849
Si 5.468502 8.131860 2.888820
Si 8.061525 5.485419 2.665404
Si 6.777247 9.530948 4.130069
Si 9.450797 6.820835 4.055341
Si 5.506821 5.439279 5.415978
Si 8.201949 8.235214 5.458389
Si 6.867115 6.809351 6.769162
Si 9.541042 9.552842 6.861284
Si 5.521400 8.149007 8.141454
Si 8.170654 5.396005 8.124843
Si 6.756666 9.563449 9.600021
Si 9.393551 6.904608 9.485955
64
Step 6200
Si 10.858571 0.028504 0.072147
Si 2.592138 2.670279 0.027224
Si 1.358904 1.348108 1.462386
Si 4.093230 4.035995 1.336945
Si 10.798053 2.729852 2.693923
Si 2.646907 10.820037 2.824956
Si 1.339951 4.113355 4.005729
Si 4.038763 1.440559 4.110208
Si 0.010512 0.053446 5.379296
Si 2.716988 2.811477 5.384805
Si 1.432868 1.455220 6.763110
Si 4.097664 4.101908 6.851333
Si 10.802493 2.640816 8.112342
Si 2.722088 10.762473 8.061092
Si 1.221149 4.055790 9.501029
Si 3.970335 1.288045 9.521368
Si 10.758301 5.334157 0.044657
Si 2.724095 8.114254 10.857324
Si 1.359641 6.756710 1.234680
Si 3.995546 9.518934 1.429488
Si 0.117558 8.083740 2.675773
Si 2.727072 5.513921 2.655748
Si 1.357763 9.413285 4.113596
Si 4.180567 6.766786 4.009195
Si 0.090941 5.436957 5.386417
Si 2.763987 8.002100 5.458028
Si 1.390713 6.788504 6.829292
Si 4.057813 9.461862 6.697423
Si 0.004840 8.166299 8.177754
Si 2.644906 5.420455 8.182895
Si 1.319181 9.520489 9.573767
Si 4.064035 6.796524 9.570163
Si 5.370926 10.772396 10.804957
Si 7.993201 2.738747 10.826237
Si 6.759974 1.183375 1.365138
Si 9.362744 4.014807 1.356625
Si 5.490448 2.677104 2.659976
Si 8.214581 0.028011 2.758719
Si 6.819733 4.112027 4.091103
Si 9.509005 1.385868 4.030521
Si 5.440157 0.003294 5.441546
Si 8.110754 2.731076 5.436280
Si 6.742463 1.390849 6.760070
Si 9.573214 4.075844 6.775203
Si 5.417177 2.728098 8.234251
Si 8.187992 0.037688 8.059198
Si 6.769614 4.173387 9.455439
Si 9.430584 1.350315 9.515893
Si 5.455142 5.421127 0.070702
Si 8.222375 8.274904 10.845812
Si 6.837620 6.916999 1.339503
Si 9.505331 9.531750 1.463480
Si 5.497643 8.269205 2.759760
Si 8.093724 5.527321 2.696471
Si 6.856275 9.461866 4.148835
Si 9.683620 6.752877 3.994567
Si 5.479620 5.438874 5.497693
Si 8.319968 8.022945 5.429549
Si 6.806792 6.812321 6.786864
Si 9.573704 9.524919 6.698059
Si 5.378079 8.138076 8.165566
Si 8.195542 5.438836 8.140947
Si 6.777484 9.550243 9.452279
Si 9.450903 6.786034 9.518653
64
Step 6250
Si 0.015285 0.020426 0.059262
Si 2.672220 2.801084 0.034756
Si 1.402056 1.407773 1.378981
Si 4.146218 4.078591 1.355278
Si 10.853877 2.747229 2.736942
Si 2.734939 10.836874 2.742614
Si 1.505010 4.042453 4.026653
Si 4.156399 1.375055 4.099596
Si 0.009821 0.079979 5.493978
Si 2.763903 2.690248 5.469539
Si 1.380035 1.407385 6.881696
Si 4.048681 4.128533 6.882692
Si 10.781802 2.713738 8.078634
Si 2.750242 0.004489 8.191278
Si 1.281323 4.056029 9.505951
Si 3.988411 1.400039 9.561969
Si 10.848422 5.384516 0.019368
Si 2.737680 8.176125 0.003926
Si 1.348207 6.767108 1.374006
Si 4.032995 9.563732 1.375566
Si 10.848062 8.194201 2.720140
Si 2.840266 5.452890 2.696239
Si 1.311298 9.565017 4.140181
Si 4.192256 6.891224 3.998185
Si 0.070047 5.364371 5.395559
Si 2.719089 8.138289 5.362270
Si 1.314251 6.835122 6.806229
Si 4.060220 9.526411 6.753796
Si 0.011846 8.205285 8.183380
Si 2.630980 5.415955 8.171255
Si 1.376476 9.564509 9.525716
Si 4.051666 6.771282 9.480975
Si 5.432765 10.849104 10.807303
Si 8.064074 2.612701 10.815472
Si 6.752625 1.297361 1.359172
Si 9.405920 3.989274 1.331745
Si 5.428014 2.720381 2.695959
Si 8.165831 10.828480 2.728354
Si 6.734681 4.051724 4.075903
Si 9.484386 1.402138 4.131610
Si 5.445960 10.853951 5.452317
Si 8.058527 2.779913 5.479394
Si 6.752788 1.345737 6.802787
Si 9.489587 4.141549 6.747486
Si 5.382758 2.694531 8.174126
Si 8.194206 10.806571 8.117478
Si 6.771921 4.011445 9.546426
Si 9.526555 1.246548 9.481560
Si 5.440046 5.404871 0.033402
Si 8.125782 8.176437 10.741522
Si 6.907125 6.737181 1.282416
Si 9.439052 9.481550 1.300476
Si 5.477024 8.205582 2.595504
Si 8.170571 5.367621 2.735874
Si 6.767025 9.448404 4.078579
Si 9.532963 6.747107 4.065440
Si 5.393017 5.438446 5.432924
Si 8.167346 8.116201 5.419764
Si 6.785052 6.797504 6.794706
Si 9.525124 9.490522 6.806888
Si 5.383047 8.085381 8.119518
Si 8.139582 5.456693 8.177401
Si 6.764327 9.484137 9.378037
Si 9.592297 6.771019 9.505836
64
Step 6300
Si 0.004776 10.840848 10.853585
Si 2.779351 2.771737 0.033057
Si 1.321931 1.372934 1.353489
Si 4.117491 4.152814 1.339561
Si 0.078719 2.673844 2.830370
Si 2.802479 0.025328 2.593282
Si 1.386469 4.053994 4.139631
Si 4.105024 1.253143 4.093204
Si 10.819494 10.857671 5.461350
Si 2.745052 2.629964 5.474511
Si 1.285511 1.308929 6.810881
Si 4.030848 4.068355 6.748737
Si 0.023029 2.811308 8.182511
Si 2.702412 0.109995 8.224510
Si 1.405682 4.140037 9.542119
Si 4.169501 1.449806 9.534878
Si 0.015815 5.551504 0.047305
Si 2.670027 8.117091 0.084496
Si 1.345852 6.840030 1.506261
Si 4.136812 9.505252 1.325488
Si 10.784451 8.207828 2.745261
Si 2.651856 5.380431 2.756499
Si 1.351612 9.599946 3.989165
Si 3.980172 6.853187 4.106969
Si 10.791229 5.455989 5.439633
Si 2.655919 8.340363 5.367836
Si 1.355931 6.795626 6.669108
Si 4.043053 9.506983 6.850356
Si 0.074059 8.102055 8.107554
Si 2.726461 5.478758 8.106669
Si 1.423361 9.482665 9.526776
Si 4.010225 6.793705 9.470601
Si 5.437463 0.059072 0.011740
Si 8.259314 2.660680 0.031675
Si 6.865953 1.427114 1.340356
Si 9.662747 4.026244 1.378205
Si 5.413305 2.674702 2.764149
Si 8.166647 0.035580 2.693765
Si 6.765406 4.089183 4.084778
Si 9.470721 1.363293 4.119746
Si 5.465207 10.795616 5.408050
Si 8.161861 2.715908 5.442276
Si 6.775715 1.374028 6.817729
Si 9.447246 4.115188 6.766749
Si 5.407432 2.738484 8.083330
Si 8.065200 10.809133 8.211258
Si 6.873917 3.941470 9.547383
Si 9.548570 1.331576 9.477398
Si 5.458922 5.470007 10.712142
Si 8.108043 8.036489 0.005198
Si 6.817569 6.648874 1.327255
Si 9.512156 9.477810 1.314105
Si 5.432592 8.052709 2.687121
Si 8.214028 5.332163 2.702943
Si 6.809705 9.537165 3.952753
Si 9.383900 6.799026 4.090767
Si 5.353413 5.473673 5.383163
Si 8.038790 8.202246 5.389122
Si 6.792798 6.720619 6.783497
Si 9.435603 9.463082 6.826142
Si 5.401809 8.083053 8.089084
Si 8.104747 5.386964 8.125118
Si 6.740457 9.425522 9.490675
Si 9.536119 6.785230 9.486663
64
Step 6350
Si 0.011935 10.820331 10.782950
Si 2.763203 2.738792 10.824130
Si 1.410038 1.321825 1.257359
Si 3.983276 4.056503 1.434225
Si 0.053657 2.623830 2.658303
Si 2.713994 10.858910 2.668882
Si 1.257445 4.077684 4.160820
Si 4.025470 1.372706 4.014780
Si 10.802987 10.806710 5.506190
Si 2.654716 2.670638 5.398669
Si 1.337229 1.290127 6.752185
Si 4.097089 4.006711 6.691691
Si 0.120492 2.718409 8.263662
Si 2.696249 0.003244 8.161843
Si 1.418212 4.109978 9.490617
Si 4.143307 1.343734 9.501849
Si 0.045893 5.465679 10.847669
Si 2.727860 8.113067 10.855868
Si 1.344609 6.843242 1.371753
Si 4.131434 9.446944 1.346713
Si 10.784628 8.153564 2.748192
Si 2.611669 5.407469 2.791239
Si 1.337655 9.524730 4.064395
Si 3.987881 6.755839 4.079185
Si 10.789983 5.515652 5.456841
Si 2.696254 8.222945 5.444605
Si 1.352869 6.833946 6.770141
Si 4.046520 9.562587 6.809982
Si 10.781792 8.165589 8.129797
Si 2.739001 5.493102 8.078617
Si 1.315080 9.434514 9.470131
Si 4.114152 6.740253 9.543505
Si 5.486922 0.012985 0.044064
Si 8.264134 2.823609 0.015586
Si 6.841677 1.462048 1.347692
Si 9.628580 4.124583 1.413532
Si 5.434502 2.751918 2.709206
Si 8.120453 0.003042 2.715599
Si 6.782959 4.081379 4.060364
Si 9.486741 1.350678 4.055103
Si 5.410445 10.846793 5.395896
Si 8.164541 2.642500 5.424158
Si 6.839755 1.296953 6.793967
Si 9.563695 3.981648 6.856285
Si 5.541556 2.748904 8.135310
Si 8.108688 10.859827 8.199941
Si 6.876624 4.182045 9.491502
Si 9.531849 1.430944 9.474830
Si 5.388779 5.377508 0.033562
Si 8.166865 8.088813 0.055956
Si 6.715677 6.763966 1.378410
Si 9.545082 9.495876 1.348617
Si 5.413967 8.061562 2.727734
Si 8.088240 5.447636 2.699286
Si 6.788053 9.541815 4.035667
Si 9.448554 6.806730 4.070041
Si 5.437051 5.391093 5.391500
Si 8.090140 8.134386 5.461678
Si 6.738046 6.761637 6.770973
Si 9.444041 9.483168 6.801474
Si 5.421762 8.266161 8.155388
Si 8.191612 5.440289 8.050894
Si 6.844884 9.482558 9.587574
Si 9.481503 6.803717 9.505415
64
Step 6400
Si 10.860461 0.003168 0.016764
Si 2.747319 2.626177 10.776626
Si 1.410519 1.318368 1.320186
Si 4.007225 4.055301 1.391674
Si 10.787537 2.739561 2.566663
Si 2.617011 10.789614 2.797033
Si 1.287364 4.015628 4.023695
Si 4.013636 1.417899 4.008666
Si 0.009320 10.859093 5.399314
Si 2.705599 2.772336 5.432174
Si 1.448883 1.326398 6.765792
Si 4.147519 4.013678 6.838517
Si 10.841358 2.678686 8.120090
Si 2.803380 10.779018 8.143961
Si 1.396307 4.046350 9.397899
Si 4.116324 1.298014 9.431138
Si 0.031407 5.351137 10.821693
Si 2.819259 8.169652 10.766213
Si 1.379922 6.806838 1.250937
Si 4.015571 9.500952 1.335574
Si 0.045081 8.132866 2.695859
Si 2.683788 5.478057 2.717042
Si 1.349154 9.433893 4.145690
Si 4.119182 6.716388 4.086363
Si 0.071741 5.362099 5.431141
Si 2.753472 8.003034 5.474552
Si 1.361201 6.749485 6.914011
Si 4.144888 9.498760 6.757229
Si 10.795042 8.163117 8.154133
Si 2.787728 5.418098 8.142572
Si 1.371206 9.506486 9.481452
Si 4.116915 6.784214 9.507736
Si 5.468578 10.858408 0.029685
Si 8.075471 2.813462 10.814032
Si 6.785437 1.332941 1.354478
Si 9.379505 4.107158 1.325067
Si 5.430831 2.718872 2.677824
Si 8.091218 10.851978 2.740506
Si 6.823384 4.007905 4.089679
Si 9.530130 1.397502 4.004166
Si 5.378868 0.113458 5.425902
Si 8.219260 2.680894 5.452130
Si 6.785587 1.367507 6.757119
Si 9.517566 4.092055 6.814567
Si 5.466804 2.719366 8.195368
Si 8.173272 0.100403 8.143935
Si 6.667820 4.136798 9.462230
Si 9.531728 1.429563 9.556675
Si 5.361245 5.398184 0.065097
Si 8.169869 8.230487 0.022910
Si 6.721449 6.906274 1.436186
Si 9.490262 9.534985 1.407133
Si 5.376827 8.223763 2.735329
Si 8.139496 5.467125 2.757455
Si 6.748604 9.532399 4.121764
Si 9.554456 6.769894 4.106251
Si 5.466706 5.352519 5.502413
Si 8.114219 8.082193 5.439795
Si 6.745426 6.845807 6.808243
Si 9.466196 9.572888 6.740514
Si 5.467198 8.208534 8.215677
Si 8.106862 5.464463 8.187275
Si 6.795923 9.570752 9.549956
Si 9.488440 6.743124 9.532240
64
Step 6450
Si 10.824074 0.006322 0.032149
Si 2.686739 2.678065 0.058340
Si 1.261217 1.379347 1.414666
Si 4.142802 4.106244 1.227898
Si 10.815956 2.810727 2.714391
Si 2.633060 10.852386 2.794870
Si 1.385093 4.129264 3.975034
Si 4.073327 1.324884 4.117594
Si 0.059215 0.003249 5.384981
Si 2.717824 2.731117 5.383090
Si 1.364195 1.387610 6.751823
Si 4.009249 4.128459 6.786346
Si 10.784531 2.683490 8.032960
Si 2.666478 10.838822 8.053085
Si 1.296034 3.943631 9.558313
Si 3.988037 1.315769 9.502876
Si 10.806520 5.421918 10.792698
Si 2.615521 8.199546 0.045087
Si 1.329325 6.671545 1.369405
Si 3.989152 9.543013 1.417454
Si 0.086589 8.058099 2.715056
Si 2.799219 5.437301 2.602676
Si 1.392525 9.455701 4.093669
Si 4.134991 6.742489 4.086388
Si 0.066231 5.344490 5.418055
Si 2.770381 8.009520 5.472847
Si 1.353436 6.746250 6.827088
Si 4.106942 9.412695 6.767268
Si 0.023791 8.152571 8.140956
Si 2.683114 5.350793 8.248174
Si 1.325010 9.562992 9.487775
Si 4.044677 6.891179 9.477839
Si 5.393023 10.821801 10.849264
Si 8.075418 2.605710 0.001638
Si 6.706095 1.307542 1.421850
Si 9.396490 4.117106 1.281553
Si 5.383087 2.727168 2.739724
Si 8.181453 10.853392 2.727922
Si 6.834343 4.061319 4.045022
Si 9.542040 1.344216 4.086638
Si 5.440479 10.859826 5.429398
Si 8.195676 2.838938 5.394728
Si 6.809940 1.412465 6.736288
Si 9.494762 4.157361 6.766705
Si 5.364368 2.675731 8.157156
Si 8.258387 0.044452 8.083429
Si 6.692178 4.038379 9.592036
Si 9.519756 1.328987 9.493860
Si 5.454557 5.580703 0.029903
Si 8.124637 8.190243 0.009007
Si 6.834955 6.887584 1.431359
Si 9.497057 9.493875 1.394813
Si 5.443413 8.137270 2.754171
Si 8.145933 5.462725 2.732707
Si 6.791433 9.490943 4.130863
Si 9.546833 6.769673 4.079396
Si 5.504790 5.439138 5.420519
Si 8.244470 8.209684 5.403672
Si 6.923541 6.832305 6.763942
Si 9.567681 9.531817 6.795311
Si 5.526727 8.073686 8.121873
Si 8.122147 5.444452 8.268770
Si 6.832504 9.533180 9.471018
Si 9.500527 6.854872 9.494603
64
Step 6500
Si 10.824501 10.853256 0.005593
Si 2.660761 2.754634 0.048366
Si 1.295381 1.361023 1.428714
Si 4.150502 4.064970 1.305059
Si 0.020835 2.704869 2.813242
Si 2.789248 0.025630 2.667332
Si 1.407019 4.134531 4.118695
Si 4.134343 1.284166 4.118130
Si 0.025569 0.052423 5.379651
Si 2.792753 2.735716 5.440867
Si 1.286526 1.425003 6.788184
Si 4.051862 4.111795 6.803921
Si 0.049425 2.719181 8.204048
Si 2.667980 0.057608 8.129431
Si 1.354371 4.109123 9.613120
Si 4.034822 1.381546 9.532503
Si 10.787006 5.442481 0.012212
Si 2.666331 8.150841 0.047829
Si 1.334090 6.807882 1.374035
Si 4.088943 9.511687 1.342886
Si 0.033766 8.111413 2.757321
Si 2.710774 5.431394 2.691785
Si 1.424976 9.528926 4.026304
Si 4.103630 6.805374 4.083715
Si 10.834347 5.501343 5.463045
Si 2.762493 8.187543 5.458503
Si 1.436241 6.749342 6.766615
Si 4.015208 9.499144 6.804133
Si 0.104987 8.124771 8.156869
Si 2.719340 5.399542 8.205305
Si 1.349841 9.525988 9.553237
Si 4.047937 6.812036 9.513421
Si 5.318016 10.816389 10.816578
Si 8.069509 2.617774 0.031877
Si 6.745738 1.291822 1.326670
Si 9.531360 3.953432 1.364227
Si 5.418350 2.686334 2.711860
Si 8.232592 0.065535 2.694351
Si 6.731023 4.137444 4.049349
Si 9.479405 1.361206 4.089326
Si 5.512709 10.761721 5.472185
Si 8.026358 2.771378 5.442123
Si 6.730264 1.416916 6.845129
Si 9.517077 4.035890 6.785392
Si 5.379550 2.731795 8.111733
Si 8.099986 10.818087 8.091843
Si 6.876985 4.016532 9.453001
Si 9.362957 1.298276 9.453468
Si 5.490604 5.433413 10.740170
Si 8.151671 8.183685 10.830371
Si 6.780331 6.764973 1.264243
Si 9.536009 9.485520 1.393840
Si 5.463388 8.162376 2.726521
Si 8.158341 5.417845 2.625856
Si 6.874806 9.491996 4.072246
Si 9.503984 6.777683 4.035215
Si 5.439323 5.457058 5.447600
Si 8.249053 8.176982 5.432665
Si 6.814877 6.766180 6.785818
Si 9.571881 9.480439 6.852939
Si 5.374751 8.134403 8.115435
Si 8.146053 5.388448 8.088811
Si 6.716573 9.502565 9.439655
Si 9.452620 6.814747 9.477422
64
Step 6550
Si 0.033550 0.024488 0.025009
Si 2.704123 2.788320 0.019827
Si 1.439359 1.319217 1.324099
Si 4.010080 4.074683 1.520774
Si 0.066516 2.668214 2.741314
Si 2.814666 0.006779 2.688917
Si 1.400015 4.026198 4.147228
Si 4.123273 1.416943 4.038895
Si 10.851099 0.050236 5.467059
Si 2.718039 2.676509 5.429026
Si 1.286871 1.404452 6.876389
Si 4.141473 4.039656 6.759793
Si 0.046525 2.754622 8.192653
Si 2.694660 0.053142 8.270191
Si 1.347348 4.145845 9.485949
Si 4.042147 1.478265 9.507041
Si 10.841133 5.442004 0.116984
Si 2.787487 8.073438 10.820536
Si 1.371964 6.837149 1.387866
Si 4.173925 9.413884 1.327183
Si 10.798476 8.239278 2.747561
Si 2.673043 5.426046 2.818612
Si 1.314876 9.618923 4.099834
Si 4.042053 6.870966 3.977661
Si 10.861649 5.471124 5.434949
Si 2.710724 8.278312 5.370779
Si 1.354325 6.872228 6.776512
Si 3.988126 9.632244 6.791876
Si 10.838644 8.134361 8.176737
Si 2.717597 5.503425 8.090742
Si 1.371012 9.494050 9.518684
Si 4.110327 6.681868 9.549842
Si 5.403611 0.025441 10.825589
Si 8.208557 2.750858 10.852008
Si 6.835088 1.367183 1.293265
Si 9.522819 4.019527 1.447417
Si 5.485580 2.694497 2.664495
Si 8.146457 10.861281 2.730639
Si 6.755303 4.050284 4.051682
Si 9.486788 1.329578 4.085335
Si 5.407910 10.824410 5.350983
Si 8.070733 2.667695 5.510747
Si 6.770723 1.260094 6.788243
Si 9.497767 4.031560 6.828443
Si 5.516164 2.688427 8.132311
Si 8.112325 10.803587 8.198783
Si 6.861272 4.130961 9.404053
Si 9.511516 1.345398 9.515629
Si 5.401650 5.281846 0.068014
Si 8.143277 8.130791 10.821183
Si 6.778988 6.698410 1.240896
Si 9.487520 9.492017 1.287533
Si 5.524888 8.139306 2.684447
Si 8.092382 5.388747 2.667814
Si 6.825279 9.435913 4.034019
Si 9.463126 6.741622 4.064750
Si 5.367947 5.477106 5.394335
Si 8.144273 8.104946 5.433185
Si 6.682142 6.783390 6.785686
Si 9.488924 9.457386 6.776476
Si 5.311776 8.199649 8.132514
Si 8.173357 5.448240 8.008014
Si 6.748764 9.435273 9.499561
Si 9.543944 6.739732 9.505423
64
Step 6600
Si 0.032935 10.842747 10.858796
Si 2.739163 2.735270 0.003155
Si 1.427808 1.356189 1.313376
Si 4.014479 4.133969 1.382807
Si 10.853398 2.646920 2.690757
Si 2.691737 10.789253 2.700900
Si 1.310777 3.976445 4.113937
Si 4.028961 1.317438 4.068453
Si 10.813930 10.807146 5.484138
Si 2.688436 2.698488 5.461711
Si 1.354180 1.334300 6.848893
Si 4.102459 4.056934 6.771793
Si 10.826119 2.792660 8.108794
Si 2.759003 10.839677 8.229449
Si 1.377729 4.157273 9.434258
Si 4.152684 1.392375 9.534808
Si 0.098352 5.466959 0.033769
Si 2.760870 8.086232 0.004147
Si 1.291280 6.826530 1.418216
Si 4.092851 9.514634 1.287574
Si 10.796320 8.234552 2.716980
Si 2.657402 5.487364 2.794468
Si 1.276390 9.519904 4.078156
Si 4.016357 6.822601 4.117909
Si 0.016116 5.401612 5.418296
Si 2.601614 8.196869 5.380747
Si 1.301304 6.819202 6.775509
Si 4.058190 9.529865 6.773941
Si 10.788196 8.164771 8.142491
Si 2.687122 5.455246 8.028107
Si 1.381306 9.432221 9.528862
Si 4.056838 6.766294 9.412926
Si 5.560770 0.057559 10.850297
Si 8.252540 2.805708 10.823014
Si 6.876524 1.407417 1.322354
Si 9.562601 4.145294 1.368201
Si 5.464544 2.707261 2.735697
Si 8.081105 10.841482 2.682167
Si 6.831937 3.982929 4.165245
Si 9.506153 1.310678 4.033955
Si 5.408644 0.052582 5.420365
Si 8.257725 2.705131 5.423026
Si 6.898614 1.313205 6.722853
Si 9.410500 4.188694 6.783061
Si 5.482220 2.702001 8.108523
Si 8.226221 0.018970 8.208650
Si 6.726407 4.054540 9.566843
Si 9.652657 1.382195 9.543756
Si 5.411177 5.453308 0.013344
Si 8.134068 8.089280 10.849192
Si 6.879910 6.721665 1.435929
Si 9.489942 9.475710 1.345451
Si 5.392370 8.130305 2.629326
Si 8.189436 5.369929 2.880841
Si 6.737306 9.508168 4.019780
Si 9.542936 6.787806 4.084787
Si 5.403412 5.400280 5.383641
Si 8.072073 8.099839 5.393206
Si 6.715095 6.822031 6.763154
Si 9.409702 9.485899 6.766935
Si 5.389752 8.153100 8.115582
Si 8.079054 5.459037 8.188830
Si 6.799334 9.475521 9.521380
Si 9.546920 6.736564 9.516481
64
Step 6650
Si 0.006148 10.840276 10.796731
Si 2.843995 2.682443 0.013722
Si 1.369084 1.418822 1.323941
Si 4.144568 4.101989 1.264293
Si 0.015071 2.696452 2.682892
Si 2.687221 0.000019 2.659612
Si 1.331209 4.058341 4.038620
Si 4.041777 1.307106 4.084060
Si 10.839551 10.825842 5.495729
Si 2.679533 2.645019 5.425209
Si 1.416907 1.272044 6.760541
Si 4.018567 4.009920 6.785163
Si 0.037103 2.682950 8.103589
Si 2.730584 10.846681 8.046008
Si 1.422645 4.002998 9.496086
Si 4.106364 1.270315 9.464798
Si 0.069211 5.454500 10.738869
Si 2.655004 8.211132 0.022004
Si 1.408408 6.739370 1.347000
Si 4.032280 9.545702 1.369241
Si 10.837367 8.092881 2.675427
Si 2.798432 5.396490 2.616284
Si 1.407452 9.454388 4.071888
Si 4.050779 6.736479 4.133324
Si 10.835185 5.383735 5.437342
Si 2.711925 8.040793 5.505844
Si 1.312473 6.752061 6.803812
Si 4.163583 9.486315 6.798525
Si 10.854979 8.150588 8.159610
Si 2.755310 5.372436 8.153840
Si 1.373655 9.512794 9.450305
Si 4.065624 6.862530 9.507120
Si 5.522245 0.032443 0.000030
Si 8.105037 2.737793 0.008391
Si 6.726843 1.425398 1.409068
Si 9.579334 4.101133 1.325728
Si 5.308348 2.718348 2.740020
Si 8.119668 0.000670 2.701915
Si 6.766573 4.061821 4.059326
Si 9.525956 1.347886 4.064120
Si 5.451938 0.030762 5.498353
Si 8.226669 2.700865 5.387610
Si 6.805632 1.403394 6.841039
Si 9.508344 4.105679 6.850729
Si 5.410666 2.743478 8.194928
Si 8.193161 0.085900 8.136076
Si 6.749243 4.059808 9.611433
Si 9.533298 1.412444 9.477463
Si 5.433021 5.552469 10.849861
Si 8.097974 8.118271 0.077605
Si 6.712783 6.822095 1.500483
Si 9.486224 9.529088 1.356209
Si 5.307934 8.121439 2.752739
Si 8.177920 5.430101 2.675537
Si 6.681539 9.558895 4.076652
Si 9.463061 6.821741 4.125155
Si 5.436463 5.386762 5.408590
Si 8.032261 8.203409 5.412089
Si 6.831239 6.812961 6.754508
Si 9.512381 9.517483 6.798006
Si 5.515715 8.169815 8.155107
Si 8.083981 5.450115 8.233632
Si 6.867687 9.575425 9.476874
Si 9.388821 6.830720 9.531289
64
Step 6700
Si 10.771951 0.015090 0.026449
Si 2.691551 2.645734 10.813387
Si 1.300089 1.310880 1.372599
Si 4.077135 3.984606 1.397743
Si 0.009816 2.785686 2.701124
Si 2.673505 10.848828 2.743527
Si 1.305340 4.157921 4.036758
Si 4.050865 1.359962 4.048448
Si 0.001602 10.784120 5.301084
Si 2.711497 2.770315 5.345866
Si 1.345919 1.300913 6.677261
Si 4.028591 4.073928 6.823818
Si 0.044761 2.693425 8.185101
Si 2.700585 10.831546 8.062231
Si 1.374973 4.016293 9.514599
Si 4.060012 1.317326 9.448878
Si 10.782095 5.358791 10.804814
Si 2.662868 8.217220 10.818587
Si 1.361021 6.786979 1.276522
Si 3.982432 9.530326 1.430698
Si 0.075913 8.065660 2.722827
Si 2.689414 5.414118 2.665720
Si 1.429590 9.350890 4.054784
Si 4.073002 6.701242 4.079406
Si 10.811413 5.461576 5.404486
Si 2.709643 8.029773 5.508301
Si 1.368743 6.733371 6.812805
Si 4.141849 9.409662 6.761192
Si 0.016370 8.068106 8.133616
Si 2.796198 5.429052 8.254312
Si 1.273225 9.592348 9.469928
Si 4.066637 6.875688 9.554801
Si 5.323162 10.803895 0.005877
Si 8.043236 2.688911 0.057841
Si 6.743129 1.268920 1.399832
Si 9.459035 4.069640 1.335742
Si 5.484517 2.739939 2.756822
Si 8.226523 0.046653 2.761631
Si 6.811234 4.171749 4.018525
Si 9.475898 1.428553 4.136258
Si 5.480939 0.016649 5.447462
Si 8.112686 2.728561 5.395662
Si 6.746131 1.480951 6.827084
Si 9.610249 3.942775 6.759212
Si 5.435566 2.755439 8.180438
Si 8.111982 0.034769 8.089208
Si 6.907117 4.128411 9.464565
Si 9.399527 1.402142 9.526602
Si 5.441152 5.439220 0.017526
Si 8.202313 8.264317 0.068604
Si 6.701953 6.906168 1.346139
Si 9.577173 9.547608 1.427007
Si 5.395293 8.203886 2.852033
Si 8.124878 5.452101 2.589837
Si 6.835609 9.547911 4.114179
Si 9.485138 6.783102 4.003319
Si 5.480362 5.389085 5.496975
Si 8.189015 8.114132 5.436811
Si 6.867489 6.773928 6.800018
Si 9.614338 9.542653 6.747186
Si 5.527835 8.151820 8.226795
Si 8.265685 5.437887 8.089597
Si 6.806120 9.554958 9.534288
Si 9.448060 6.845917 9.557248
64
Step 6750
Si 10.835115 0.078437 0.065481
Si 2.588823 2.703764 0.009489
Si 1.346872 1.337934 1.431984
Si 4.041329 4.065936 1.363912
Si 10.827745 2.750092 2.683627
Si 2.772338 10.825836 2.775438
Si 1.432604 4.062101 4.014735
Si 4.097702 1.404259 4.120569
Si 0.006582 0.003166 5.490193
Si 2.729770 2.800477 5.427450
Si 1.411117 1.413645 6.751142
Si 4.097545 4.138113 6.794232
Si 10.835556 2.688620 8.092315
Si 2.704678 10.821065 8.140124
Si 1.284664 4.017684 9.503276
Si 3.983683 1.387314 9.476068
Si 10.766346 5.383687 0.057232
Si 2.703536 8.131044 10.810427
Si 1.359689 6.774736 1.317080
Si 4.082592 9.436951 1.351234
Si 0.101220 8.128015 2.720751
Si 2.708569 5.453795 2.736865
Si 1.334960 9.488350 4.159641
Si 4.140188 6.778248 4.010950
Si 0.066375 5.435929 5.404581
Si 2.779052 8.129887 5.463878
Si 1.363939 6.797460 6.812291
Si 4.036675 9.506201 6.786555
Si 10.851051 8.207690 8.131508
Si 2.704423 5.453570 8.231591
Si 1.312572 9.546157 9.502483
Si 4.113374 6.740069 9.548083
Si 5.319702 10.850639 0.004586
Si 8.119350 2.670073 10.810308
Si 6.750250 1.297569 1.326617
Si 9.369665 4.051979 1.330962
Si 5.454953 2.709233 2.687697
Si 8.100715 0.004774 2.762520
Si 6.792746 4.098125 4.091145
Si 9.511911 1.353421 4.096039
Si 5.415057 10.833592 5.402489
Si 8.163233 2.760911 5.440937
Si 6.763917 1.334938 6.756870
Si 9.560495 4.068567 6.806041
Si 5.448430 2.707871 8.121541
Si 8.136887 10.787880 8.124024
Si 6.753322 4.140369 9.488290
Si 9.478247 1.306231 9.463412
Si 5.413086 5.387236 0.044627
Si 8.139947 8.171513 10.811486
Si 6.796693 6.794995 1.256449
Si 9.508625 9.526655 1.372656
Si 5.542641 8.206190 2.698931
Si 8.086387 5.506045 2.709528
Si 6.868814 9.457737 4.126296
Si 9.525311 6.763825 4.011340
Si 5.432861 5.498100 5.480115
Si 8.253274 8.124203 5.440833
Si 6.826303 6.791166 6.823133
Si 9.512167 9.519066 6.758874
Si 5.412301 8.120432 8.122382
Si 8.204509 5.407342 8.166145
Si 6.752569 9.511052 9.518006
Si 9.610893 6.794065 9.482529
64
Step 6800
Si 0.044637 10.835227 0.046957
Si 2.664464 2.756442 0.055420
Si 1.397666 1.362532 1.439558
Si 4.061676 4.097672 1.323062
Si 10.796303 2.616257 2.742416
Si 2.742423 10.861918 2.740806
Si 1.395770 4.022264 4.064499
Si 4.133347 1.306603 4.076400
Si 0.036439 0.125507 5.492042
Si 2.796894 2.723869 5.470346
Si 1.400816 1.464728 6.863917
Si 4.148831 4.115667 6.810289
Si 10.771384 2.750556 8.096809
Si 2.718084 0.041314 8.234769
Si 1.305580 4.100790 9.524357
Si 4.058714 1.450955 9.559178
Si 0.016037 5.467807 0.072434
Si 2.731448 8.119217 0.062694
Si 1.328305 6.803644 1.427368
Si 4.114606 9.510359 1.283185
Si 10.831031 8.251923 2.722470
Si 2.777593 5.470810 2.731456
Si 1.349820 9.642076 4.081110
Si 4.134318 6.897000 4.069386
Si 0.090569 5.420337 5.440717
Si 2.716608 8.230466 5.361657
Si 1.391337 6.808963 6.763881
Si 3.995367 9.563786 6.807718
Si 0.082520 8.189066 8.182005
Si 2.584122 5.384489 8.071766
Si 1.406643 9.455576 9.598743
Si 3.989883 6.740220 9.421482
Si 5.458044 0.071262 10.801019
Si 8.167625 2.648930 10.806486
Si 6.796621 1.408076 1.311028
Si 9.531143 3.986389 1.362543
Si 5.374509 2.698217 2.711206
Si 8.144435 0.007184 2.635165
Si 6.756664 3.955196 4.126074
Si 9.496685 1.310277 4.038560
Si 5.416768 10.841540 5.418107
Si 8.170815 2.716078 5.464754
Si 6.833915 1.311517 6.749487
Si 9.448430 4.217027 6.776657
Si 5.395346 2.656643 8.115407
Si 8.076581 10.842871 8.163866
Si 6.679667 3.968781 9.490928
Si 9.561086 1.288627 9.473050
Si 5.424417 5.404003 10.819163
Si 8.127203 8.128048 10.819417
Si 6.920287 6.705106 1.372395
Si 9.418018 9.469432 1.315424
Si 5.457314 8.093688 2.565576
Si 8.196805 5.373446 2.846476
Si 6.796717 9.474194 4.010638
Si 9.634583 6.778689 4.095290
Si 5.440793 5.478712 5.366950
Si 8.156352 8.119088 5.390243
Si 6.768216 6.799493 6.829834
Si 9.424425 9.480551 6.832499
Si 5.334488 8.121500 8.088362
Si 8.058950 5.422059 8.198677
Si 6.721555 9.459368 9.493814
Si 9.520254 6.759996 9.456000
64
Step 6850
Si 0.003169 10.808580 10.793736
Si 2.762086 2.818971 0.017839
Si 1.334292 1.344332 1.262764
Si 4.098281 4.148281 1.383393
Si 0.026863 2.653585 2.833635
Si 2.691202 0.017017 2.639691
Si 1.345295 4.104080 4.145101
Si 4.094550 1.281177 4.062479
Si 10.860226 0.026644 5.480715
Si 2.682453 2.618964 5.390145
Si 1.248879 1.354380 6.827866
Si 4.014118 3.993361 6.719049
Si 0.021104 2.764737 8.245187
Si 2.628014 0.086008 8.181873
Si 1.349997 4.222012 9.534538
Si 4.088808 1.361518 9.553385
Si 0.030862 5.520079 0.014224
Si 2.747508 8.118375 0.075205
Si 1.326857 6.794216 1.439410
Si 4.150161 9.510153 1.346728
Si 10.778262 8.216310 2.770209
Si 2.700177 5.428471 2.757595
Si 1.342421 9.616040 4.046454
Si 4.015006 6.827505 4.088436
Si 10.813969 5.415684 5.403831
Si 2.664103 8.209496 5.353808
Si 1.366623 6.770811 6.797493
Si 4.054431 9.570310 6.805970
Si 10.829658 8.097911 8.143342
Si 2.721355 5.426978 8.055068
Si 1.381991 9.446124 9.504532
Si 4.051408 6.794419 9.537418
Si 5.500271 10.845685 10.829995
Si 8.243641 2.773410 0.052924
Si 6.805203 1.425036 1.373772
Si 9.658803 4.048010 1.399389
Si 5.423360 2.765141 2.712307
Si 8.164016 10.834894 2.659929
Si 6.844416 4.118163 4.024765
Si 9.543237 1.336801 4.079015
Si 5.485047 10.783647 5.412865
Si 8.096120 2.681975 5.453289
Si 6.798042 1.294177 6.826131
Si 9.463654 4.054871 6.752819
Si 5.438537 2.739162 8.179040
Si 8.218502 10.828003 8.136964
Si 6.896884 4.067190 9.529062
Si 9.519877 1.403030 9.509297
Si 5.435647 5.444007 10.806136
Si 8.112136 8.071968 0.022176
Si 6.825978 6.709574 1.441084
Si 9.519537 9.425317 1.309223
Si 5.462318 8.038959 2.701111
Si 8.245476 5.334497 2.677353
Si 6.787022 9.497164 3.987182
Si 9.381739 6.820180 4.118564
Si 5.428744 5.389099 5.382369
Si 8.113138 8.201641 5.446050
Si 6.721670 6.850840 6.696091
Si 9.550975 9.438884 6.808199
Si 5.348376 8.151200 8.150870
Si 8.107232 5.491449 8.076201
Si 6.783851 9.433869 9.433558
Si 9.436366 6.781656 9.523136
64
Step 6900
Si 10.854949 0.026508 10.852227
Si 2.759352 2.684008 10.803496
Si 1.392470 1.333542 1.209006
Si 4.065418 4.058995 1.384707
Si 0.066321 2.664929 2.692439
Si 2.749381 0.004701 2.629189
Si 1.285697 4.037948 4.126811
Si 4.036716 1.402733 4.003731
Si 10.830480 10.788393 5.352449
Si 2.692770 2.654971 5.384214
Si 1.327691 1.292183 6.796299
Si 4.080500 3.971170 6.801817
Si 0.054269 2.783398 8.205073
Si 2.752867 10.848007 8.152685
Si 1.446305 4.094225 9.491909
Si 4.113070 1.336552 9.470436
Si 0.047570 5.452477 10.831686
Si 2.703392 8.164021 10.806362
Si 1.395214 6.871495 1.363527
Si 4.090374 9.497669 1.377594
Si 10.838640 8.101366 2.724054
Si 2.621879 5.396237 2.764752
Si 1.400697 9.420080 4.017024
Si 3.956416 6.727373 4.151443
Si 10.783795 5.403714 5.443886
Si 2.686848 8.117015 5.490636
Si 1.369922 6.745972 6.802622
Si 4.063115 9.511145 6.762726
Si 0.000333 8.082413 8.124761
Si 2.845216 5.487917 8.126313
Si 1.362013 9.521521 9.446883
Si 4.178665 6.811817 9.595652
Si 5.446742 10.841917 0.043677
Si 8.122210 2.775062 0.018871
Si 6.810947 1.296567 1.347857
Si 9.527441 4.172818 1.388635
Si 5.495834 2.684216 2.707317
Si 8.146082 0.035577 2.723050
Si 6.800264 4.084765 4.081175
Si 9.492634 1.432758 4.045977
Si 5.394189 0.049222 5.468558
Si 8.121688 2.694618 5.486971
Si 6.716648 1.372005 6.837238
Si 9.452039 4.005659 6.806774
Si 5.488849 2.729269 8.170552
Si 8.166354 0.026513 8.162609
Si 6.847690 4.134429 9.479076
Si 9.517963 1.402322 9.519261
Si 5.423620 5.416909 0.003670
Si 8.158980 8.172663 10.841345
Si 6.683878 6.867211 1.327166
Si 9.593681 9.524310 1.416417
Si 5.395896 8.167413 2.835459
Si 8.097656 5.478362 2.655055
Si 6.772845 9.573169 4.088656
Si 9.458338 6.786629 4.081741
Si 5.364793 5.330099 5.486825
Si 8.082444 8.178959 5.460898
Si 6.714216 6.734420 6.753928
Si 9.562098 9.490712 6.815537
Si 5.457476 8.231615 8.151792
Si 8.116052 5.405205 8.071565
Si 6.821844 9.545730 9.493861
Si 9.480211 6.786413 9.488067
64
Step 6950
Si 10.850579 0.041878 0.044568
Si 2.731230 2.690596 10.848984
Si 1.376529 1.386589 1.408023
Si 4.045320 4.034121 1.385672
Si 10.758639 2.758806 2.567245
Si 2.718460 10.831927 2.783434
Si 1.318003 4.001874 3.969226
Si 4.006665 1.443983 4.041313
Si 10.845837 10.819041 5.416825
Si 2.691432 2.756180 5.472922
Si 1.400645 1.322686 6.706357
Si 4.064400 4.123938 6.825139
Si 0.076544 2.656561 8.054061
Si 2.729934 10.800541 8.057144
Si 1.344584 3.927483 9.485437
Si 4.090111 1.291619 9.479644
Si 10.809982 5.347836 10.839585
Si 2.712152 8.177536 10.774218
Si 1.407713 6.728497 1.256456
Si 3.976599 9.470657 1.417311
Si 0.055401 8.054398 2.661676
Si 2.699675 5.386111 2.663650
Si 1.323878 9.441962 4.121131
Si 4.097022 6.709596 4.046398
Si 0.015541 5.421894 5.420839
Si 2.726772 8.034047 5.482660
Si 1.347029 6.738215 6.814509
Si 4.074397 9.425445 6.768351
Si 10.849289 8.217764 8.101083
Si 2.707346 5.399497 8.272462
Si 1.319424 9.532324 9.481205
Si 4.145772 6.802236 9.453399
Si 5.412964 10.834044 0.036030
Si 8.168534 2.723361 10.838898
Si 6.847851 1.360855 1.334825
Si 9.353999 4.198637 1.307716
Si 5.418940 2.693539 2.676132
Si 8.152710 10.859804 2.799623
Si 6.753708 4.020571 4.061728
Si 9.545629 1.360430 4.050198
Si 5.361114 0.074780 5.409743
Si 8.221713 2.756385 5.354146
Si 6.831262 1.396947 6.756644
Si 9.549860 4.081215 6.839467
Si 5.444364 2.683614 8.135348
Si 8.173328 0.054138 8.138557
Si 6.666952 4.103903 9.596641
Si 9.519874 1.393850 9.512562
Si 5.411210 5.570466 0.120461
Si 8.160895 8.172930 0.010904
Si 6.806887 6.920051 1.378444
Si 9.513803 9.540845 1.427709
Si 5.353062 8.209780 2.760926
Si 8.117384 5.513958 2.756235
Si 6.751477 9.488534 4.157389
Si 9.537009 6.779391 4.062573
Si 5.435603 5.414005 5.448223
Si 8.137608 8.121231 5.420732
Si 6.823384 6.758822 6.824459
Si 9.478149 9.585746 6.705013
Si 5.566103 8.184002 8.151866
Si 8.153625 5.445333 8.261130
Si 6.883166 9.549191 9.587113
Si 9.576871 6.819831 9.541626
64
Step 7000
Si 10.853693 10.800030 0.012744
Si 2.733143 2.623048 0.047781
Si 1.272100 1.344592 1.483422
Si 4.076088 4.089487 1.268257
Si 10.843128 2.779765 2.712455
Si 2.639986 0.000327 2.803047
Si 1.379140 4.162341 4.039937
Si 4.126673 1.282331 4.151923
Si 0.007555 0.017232 5.433284
Si 2.763647 2.854839 5.386190
Si 1.428953 1.402514 6.734296
Si 4.094158 4.134294 6.820175
Si 10.789383 2.645845 8.096246
Si 2.732301 10.823926 8.137173
Si 1.328500 3.978871 9.514133
Si 4.063178 1.306066 9.512054
Si 10.787718 5.425258 10.857547
Si 2.690101 8.159553 0.004056
Si 1.332220 6.711112 1.285328
Si 3.980876 9.572932 1.350874
Si 0.089503 8.124217 2.702454
Si 2.764681 5.462324 2.664793
Si 1.381236 9.449073 4.111239
Si 4.174478 6.761315 4.015088
Si 0.059517 5.466710 5.510859
Si 2.746330 8.094724 5.428885
Si 1.338115 6.775798 6.808798
Si 4.147265 9.447979 6.765156
Si 0.018242 8.174898 8.178135
Si 2.639797 5.399407 8.174165
Si 1.311117 9.518864 9.506650
Si 3.980737 6.823513 9.445927
Si 5.423889 0.026586 10.843443
Si 8.065603 2.648776 10.806639
Si 6.745957 1.351066 1.389899
Si 9.440570 3.995697 1.310712
Si 5.395583 2.732250 2.701871
Si 8.120741 10.775601 2.710302
Si 6.780353 4.070442 4.095418
Si 9.453476 1.326607 4.085996
Si 5.491490 10.832607 5.470059
Si 8.156958 2.774686 5.410834
Si 6.811397 1.435904 6.726438
Si 9.535247 4.174054 6.800388
Si 5.385417 2.725142 8.142799
Si 8.089749 0.044982 8.071531
Si 6.744166 4.095388 9.470135
Si 9.476066 1.305302 9.520849
Si 5.459301 5.507780 10.803944
Si 8.184294 8.172707 0.048740
Si 6.848669 6.788248 1.420191
Si 9.506574 9.515504 1.388996
Si 5.373581 8.182398 2.684450
Si 8.158236 5.417923 2.768542
Si 6.786073 9.495956 4.085956
Si 9.585449 6.794533 4.071346
Si 5.526271 5.490775 5.434146
Si 8.209001 8.105594 5.407964
Si 6.879142 6.827947 6.861145
Si 9.437201 9.532313 6.755026
Si 5.442058 8.080509 8.149021
Si 8.175134 5.424034 8.213222
Si 6.829572 9.506879 9.532586
Si 9.493164 6.812654 9.438330
64
Step 7050
Si 10.856535 10.837436 10.809487
Si 2.624701 2.750947 0.013019
Si 1.329415 1.351603 1.413625
Si 4.103158 4.072404 1.294773
Si 0.087270 2.711540 2.817792
Si 2.723599 0.068610 2.702851
Si 1.453294 4.098301 4.120972
Si 4.174269 1.371810 4.102137
Si 0.027950 0.093985 5.474269
Si 2.756127 2.659380 5.420239
Si 1.324123 1.427280 6.844678
Si 4.033555 4.061646 6.737848
Si 0.007039 2.721424 8.283951
Si 2.673629 0.080869 8.113501
Si 1.338252 4.108074 9.537166
Si 4.009513 1.410945 9.516562
Si 0.018931 5.382939 0.034091
Si 2.700902 8.126356 0.078590
Si 1.279326 6.778505 1.364183
Si 4.132672 9.532600 1.332457
Si 0.023659 8.193831 2.807989
Si 2.790257 5.479449 2.683710
Si 1.435944 9.596241 4.126460
Si 4.122246 6.871337 4.045376
Si 0.047348 5.457774 5.428972
Si 2.761240 8.231904 5.384515
Si 1.398415 6.865190 6.804948
Si 4.076726 9.558984 6.835198
Si 10.860756 8.115329 8.204841
Si 2.716412 5.389796 8.112231
Si 1.399674 9.546423 9.475331
Si 4.014663 6.767892 9.580009
Si 5.407391 10.848141 10.803314
Si 8.072243 2.670119 0.031761
Si 6.690799 1.328803 1.379561
Si 9.617552 3.897425 1.408903
Si 5.399377 2.758106 2.738029
Si 8.153581 0.043962 2.668995
Si 6.821574 4.131977 4.018414
Si 9.463998 1.360087 4.126313
Si 5.460203 10.812789 5.403951
Si 8.064816 2.694233 5.482171
Si 6.750353 1.336449 6.831384
Si 9.555141 4.004383 6.781037
Si 5.355938 2.771291 8.143279
Si 8.113832 10.777593 8.184683
Si 6.890690 4.043636 9.441234
Si 9.452999 1.311287 9.464368
Si 5.451202 5.296657 10.806460
Si 8.104749 8.130534 10.858000
Si 6.738624 6.655322 1.301222
Si 9.485624 9.434058 1.350193
Si 5.501999 8.077855 2.627816
Si 8.141033 5.363623 2.616067
Si 6.834753 9.445463 3.976323
Si 9.454322 6.746320 4.001762
Si 5.449782 5.472776 5.418523
Si 8.235262 8.224223 5.455319
Si 6.740453 6.877285 6.739876
Si 9.523662 9.523797 6.824565
Si 5.292397 8.122691 8.188235
Si 8.149609 5.464556 8.025507
Si 6.704987 9.474172 9.455827
Si 9.479395 6.763612 9.529130
64
Step 7100
Si 10.839320 10.840615 0.040311
Si 2.658388 2.769779 0.022716
Si 1.432393 1.293504 1.305165
Si 4.050684 4.095453 1.461743
Si 0.017770 2.652378 2.680004
Si 2.826430 10.840807 2.637091
Si 1.329762 4.060964 4.114484
Si 4.090088 1.396550 4.034464
Si 10.829404 10.847605 5.462784
Si 2.702517 2.664575 5.481109
Si 1.286989 1.413446 6.870978
Si 4.132979 4.086574 6.786265
Si 10.773376 2.834006 8.157772
Si 2.703717 0.024438 8.233455
Si 1.334420 4.204143 9.518622
Si 4.060393 1.483998 9.496740
Si 0.058011 5.493795 0.056023
Si 2.708053 8.115336 0.027554
Si 1.350964 6.886229 1.481663
Si 4.149901 9.431904 1.324314
Si 10.774472 8.221903 2.741683
Si 2.626836 5.437427 2.785589
Si 1.326809 9.599982 4.036263
Si 4.003068 6.831933 4.101817
Si 10.808241 5.428421 5.354561
Si 2.648778 8.228716 5.424019
Si 1.353158 6.809032 6.712871
Si 3.986847 9.591480 6.782436
Si 0.044935 8.090277 8.158498
Si 2.733909 5.517790 8.079718
Si 1.343148 9.474082 9.554949
Si 4.077556 6.755549 9.534036
Si 5.357261 10.847322 0.026405
Si 8.218668 2.763945 0.011749
Si 6.880813 1.353211 1.292659
Si 9.544914 4.060247 1.418916
Si 5.517666 2.677769 2.709722
Si 8.222900 0.063152 2.709335
Si 6.806376 4.073531 4.095977
Si 9.497833 1.400976 4.082386
Si 5.468852 10.838730 5.372461
Si 8.167453 2.664186 5.505618
Si 6.786956 1.262299 6.801232
Si 9.436904 4.110271 6.706706
Si 5.508425 2.662422 8.105315
Si 8.167452 10.778230 8.240693
Si 6.844235 4.016014 9.429107
Si 9.532644 1.306063 9.544350
Si 5.374291 5.292637 10.850193
Si 8.189948 8.085126 10.775639
Si 6.815805 6.734288 1.247825
Si 9.502500 9.442509 1.324499
Si 5.519433 8.109932 2.683414
Si 8.156573 5.441151 2.765393
Si 6.848211 9.505260 4.038973
Si 9.494387 6.792391 4.115354
Si 5.375139 5.456787 5.389255
Si 8.143805 8.168696 5.452728
Si 6.730222 6.778785 6.705029
Si 9.545694 9.399748 6.820103
Si 5.388869 8.165081 8.104955
Si 8.125850 5.480270 8.051205
Si 6.697635 9.430236 9.505935
Si 9.514910 6.724073 9.517165
64
Step 7150
Si 0.021316 0.034029 0.031741
Si 2.825515 2.770366 10.839814
Si 1.442834 1.368280 1.294329
Si 4.100267 4.110053 1.391383
Si 10.797082 2.744885 2.631081
Si 2.746239 10.809070 2.750317
Si 1.353968 3.972474 4.073533
Si 4.015535 1.345878 4.084128
Si 10.820133 10.847879 5.524595
Si 2.706050 2.727579 5.484743
Si 1.372946 1.314370 6.787846
Si 4.083448 4.045083 6.820468
Si 0.022983 2.734790 8.077741
Si 2.695021 0.015409 8.202847
Si 1.350127 4.078269 9.477083
Si 4.101121 1.336596 9.534750
Si 0.032384 5.448644 10.800237
Si 2.792243 8.118618 10.784266
Si 1.433701 6.803955 1.412510
Si 4.146761 9.525067 1.330822
Si 10.837021 8.178603 2.678369
Si 2.671787 5.387468 2.801836
Si 1.270922 9.536221 4.061002
Si 4.003918 6.772340 4.082046
Si 10.816888 5.394659 5.392267
Si 2.677746 8.149448 5.426933
Si 1.368671 6.719519 6.752822
Si 4.004464 9.532400 6.749336
Si 0.016174 8.165020 8.098579
Si 2.717877 5.403290 8.179522
Si 1.388171 9.428707 9.533763
Si 4.178227 6.780001 9.399099
Si 5.497356 0.001867 0.019395
Si 8.266239 2.804972 10.835129
Si 6.869869 1.414631 1.298510
Si 9.463693 4.232999 1.360958
Si 5.440713 2.666303 2.663288
Si 8.101228 10.835566 2.727020
Si 6.722005 4.003805 4.091321
Si 9.579548 1.301524 4.018413
Si 5.394848 10.853344 5.453761
Si 8.200660 2.701130 5.376651
Si 6.843895 1.302282 6.776275
Si 9.402637 4.102146 6.804610
Si 5.515064 2.591569 8.122344
Si 8.223842 0.037950 8.146211
Si 6.683493 4.078618 9.568912
Si 9.563762 1.428580 9.500500
Si 5.410597 5.543516 0.059074
Si 8.086721 8.081806 10.842134
Si 6.802062 6.793183 1.455863
Si 9.479246 9.531328 1.323327
Si 5.424536 8.146605 2.744718
Si 8.107682 5.427271 2.784909
Si 6.698990 9.572668 4.090033
Si 9.473487 6.856315 4.130425
Si 5.358707 5.352616 5.402526
Si 8.025878 8.147883 5.449619
Si 6.716723 6.760840 6.811114
Si 9.509860 9.488058 6.811333
Si 5.482416 8.233364 8.099113
Si 8.047510 5.423012 8.256145
Si 6.849999 9.484667 9.466060
Si 9.529133 6.784640 9.466493
64
Step 7200
Si 0.075860 0.051669 0.014675
Si 2.759196 2.623153 10.861664
Si 1.293953 1.441063 1.365369
Si 4.076139 4.043995 1.306951
Si 0.020022 2.774237 2.740874
Si 2.572694 0.002595 2.721951
Si 1.326802 4.128440 4.057472
Si 4.012249 1.299093 4.050439
Si 10.851046 10.848631 5.306515
Si 2.728945 2.735994 5.365678
Si 1.407023 1.304549 6.738661
Si 4.040700 3.981400 6.848871
Si 0.057470 2.710526 8.118407
Si 2.735606 10.798617 8.127063
Si 1.420542 4.001485 9.525377
Si 4.157284 1.242205 9.513716
Si 10.834714 5.414612 10.765896
Si 2.683188 8.223288 0.024157
Si 1.381359 6.781982 1.236138
Si 4.023578 9.622278 1.347301
Si 0.049010 8.028618 2.657015
Si 2.729158 5.447174 2.621198
Si 1.415671 9.396368 4.037167
Si 4.101103 6.702217 4.112197
Si 10.819601 5.421106 5.511248
Si 2.676938 8.031128 5.451339
Si 1.302042 6.707142 6.837684
Si 4.083684 9.410901 6.810827
Si 10.827625 8.130542 8.138298
Si 2.760145 5.362803 8.152861
Si 1.378780 9.498643 9.486541
Si 4.030293 6.839651 9.553246
Si 5.537421 10.859948 10.850922
Si 8.095277 2.720416 0.007503
Si 6.757690 1.358012 1.411379
Si 9.545140 4.128729 1.328721
Si 5.339410 2.714771 2.735059
Si 8.121168 10.792758 2.671181
Si 6.767110 4.029288 4.072510
Si 9.486303 1.343674 3.984580
Si 5.371099 0.077970 5.504726
Si 8.162174 2.732083 5.338601
Si 6.814792 1.469210 6.811235
Si 9.506147 4.036706 6.821523
Si 5.449701 2.717989 8.216916
Si 8.182808 0.100441 8.070971
Si 6.767706 4.151817 9.560757
Si 9.522997 1.443699 9.525379
Si 5.520037 5.535230 0.031366
Si 8.152939 8.208779 0.094311
Si 6.743206 6.887415 1.480857
Si 9.573367 9.562400 1.389018
Si 5.242346 8.213586 2.794370
Si 8.157567 5.406299 2.718867
Si 6.727637 9.515657 4.124212
Si 9.521908 6.786150 4.033255
Si 5.437285 5.351682 5.500907
Si 8.109306 8.106778 5.365240
Si 6.838319 6.813854 6.807689
Si 9.498955 9.548089 6.775203
Si 5.479227 8.138104 8.191194
Si 8.130607 5.426721 8.140806
Si 6.916421 9.560161 9.462477
Si 9.475444 6.839508 9.493462
64
Step 7250
Si 10.765723 0.006185 10.820276
Si 2.702151 2.660759 10.820257
Si 1.246826 1.362971 1.394530
Si 4.035641 4.050041 1.332319
Si 0.003782 2.793614 2.766380
Si 2.666962 0.007165 2.721971
Si 1.385437 4.196068 4.049815
Si 4.103905 1.389649 4.113163
Si 0.050931 10.807239 5.330201
Si 2.628863 2.697807 5.412328
Si 1.297989 1.312211 6.709069
Si 4.061676 4.079834 6.787545
Si 0.056886 2.607000 8.139972
Si 2.733110 10.819767 8.013511
Si 1.404568 4.007215 9.495417
Si 4.054080 1.335578 9.411601
Si 10.808295 5.350267 10.846910
Si 2.631983 8.200515 10.858239
Si 1.310662 6.718805 1.271333
Si 4.005628 9.451908 1.412796
Si 0.017473 8.087252 2.735945
Si 2.785853 5.445341 2.627495
Si 1.437808 9.409794 4.127918
Si 4.138221 6.801882 4.074901
Si 0.061433 5.460620 5.445270
Si 2.757002 8.053868 5.511055
Si 1.325800 6.789085 6.909699
Si 4.144778 9.406214 6.823025
Si 10.768471 8.188443 8.137966
Si 2.793251 5.466481 8.211116
Si 1.264229 9.586587 9.428603
Si 4.080267 6.826850 9.600075
Si 5.386224 10.840528 10.831984
Si 8.016868 2.641095 0.046611
Si 6.738700 1.319342 1.425825
Si 9.497236 4.012827 1.335819
Si 5.417681 2.751184 2.750172
Si 8.208536 10.860113 2.753070
Si 6.854289 4.161777 4.033226
Si 9.454848 1.398753 4.144027
Si 5.427622 10.843079 5.456434
Si 8.079900 2.731195 5.457204
Si 6.730500 1.380951 6.796554
Si 9.629991 4.032601 6.821036
Si 5.430934 2.834313 8.194952
Si 8.165996 10.846000 8.102935
Si 6.858375 4.125180 9.553650
Si 9.426977 1.358890 9.486817
Si 5.486845 5.410371 10.835414
Si 8.205679 8.200440 0.022648
Si 6.764270 6.895831 1.332804
Si 9.480648 9.483440 1.379082
Si 5.440593 8.149033 2.787853
Si 8.111291 5.485114 2.608704
Si 6.833720 9.477067 4.134868
Si 9.475115 6.734554 4.016139
Si 5.475404 5.470277 5.489445
Si 8.221249 8.166937 5.367286
Si 6.881810 6.840661 6.741824
Si 9.523522 9.562072 6.696782
Si 5.447015 8.086839 8.202506
Si 8.237234 5.454999 8.077476
Si 6.813876 9.559941 9.547185
Si 9.469302 6.815609 9.536959
64
Step 7300
Si 10.777937 10.852218 0.021482
Si 2.641859 2.720458 0.014412
Si 1.439024 1.260203 1.420559
Si 4.048028 4.065831 1.401786
Si 10.851768 2.659626 2.656922
Si 2.845966 10.854847 2.716218
Si 1.403034 4.004268 4.053752
Si 4.081848 1.397320 4.104563
Si 10.853499 10.861363 5.428588
Si 2.783286 2.798786 5.457722
Si 1.384638 1.391993 6.771193
Si 4.135583 4.214410 6.758686
Si 10.782548 2.698589 8.141273
Si 2.688405 0.031596 8.189673
Si 1.310348 4.046345 9.497119
Si 3.992048 1.450581 9.506341
Si 0.030382 5.383123 0.080786
Si 2.714552 8.128367 10.842063
Si 1.307158 6.777646 1.408218
Si 4.015817 9.444857 1.344656
Si 0.055380 8.231404 2.726052
Si 2.766762 5.391242 2.737631
Si 1.385932 9.545687 4.056988
Si 4.121582 6.871632 4.036463
Si 0.092084 5.417722 5.395921
Si 2.779484 8.192647 5.447774
Si 1.449320 6.826605 6.797119
Si 4.120334 9.550794 6.792757
Si 0.042360 8.198982 8.165283
Si 2.672672 5.444767 8.207370
Si 1.281980 9.579344 9.542851
Si 4.078110 6.798107 9.469479
Si 5.285095 10.822061 10.851434
Si 8.086112 2.642636 0.010864
Si 6.712503 1.300721 1.327603
Si 9.438507 4.009922 1.355867
Si 5.487965 2.716574 2.724836
Si 8.139050 0.110893 2.748027
Si 6.786741 4.089100 4.106809
Si 9.502152 1.450159 4.145602
Si 5.473190 10.848430 5.383107
Si 8.124296 2.736164 5.526746
Si 6.758650 1.344825 6.705061
Si 9.525577 4.158128 6.749899
Si 5.347469 2.694193 8.093286
Si 8.000550 10.820367 8.183427
Si 6.729948 3.994012 9.438977
Si 9.446073 1.274661 9.502297
Si 5.370302 5.344049 10.810923
Si 8.159525 8.165185 10.761174
Si 6.830884 6.696895 1.264359
Si 9.456399 9.476862 1.383499
Si 5.536114 8.178470 2.610929
Si 8.148308 5.423293 2.717814
Si 6.857440 9.539690 4.048885
Si 9.597246 6.771503 4.061728
Si 5.485939 5.483855 5.406157
Si 8.223973 8.135732 5.439360
Si 6.824372 6.714046 6.819859
Si 9.479422 9.494953 6.824905
Si 5.465536 8.099349 8.122726
Si 8.207716 5.410728 8.184928
Si 6.587335 9.549948 9.576802
Si 9.575817 6.719267 9.504405
64
Step 7350
Si 0.025100 10.831800 0.015226
Si 2.655793 2.795024 0.081691
Si 1.396746 1.384041 1.373072
Si 4.084092 4.136882 1.399289
Si 0.001773 2.641945 2.734806
Si 2.711718 0.018920 2.737975
Si 1.342254 4.014982 4.031498
Si 4.103305 1.353065 4.067701
Si 10.807311 0.076092 5.630970
Si 2.729362 2.728856 5.443305
Si 1.360982 1.440271 6.853357
Si 4.065634 4.088976 6.753355
Si 10.778283 2.751100 8.172502
Si 2.616432 0.028534 8.204864
Si 1.227500 4.105850 9.528331
Si 3.990328 1.401395 9.522132
Si 0.009659 5.511634 0.065324
Si 2.763203 8.049119 0.004536
Si 1.366993 6.827970 1.478307
Si 4.125027 9.492132 1.308049
Si 0.005000 8.242984 2.708363
Si 2.753013 5.444114 2.776163
Si 1.278577 9.579246 4.142386
Si 4.090420 6.831307 4.014352
Si 0.002291 5.471743 5.394867
Si 2.746321 8.233425 5.333664
Si 1.392369 6.855259 6.663734
Si 3.976175 9.637196 6.802806
Si 0.075581 8.101244 8.141240
Si 2.620545 5.373659 8.083718
Si 1.410369 9.450857 9.563771
Si 4.018394 6.714512 9.439759
Si 5.493725 10.855181 10.783301
Si 8.199379 2.743304 10.788214
Si 6.815671 1.370833 1.319769
Si 9.475184 4.025382 1.384932
Si 5.420607 2.714974 2.688731
Si 8.085077 10.828417 2.702694
Si 6.797911 4.055345 4.075492
Si 9.542052 1.268004 4.011448
Si 5.480270 10.836999 5.385792
Si 8.233019 2.721181 5.422546
Si 6.840023 1.377159 6.777284
Si 9.490461 4.124602 6.803430
Si 5.398929 2.654080 8.128040
Si 8.114650 10.834340 8.158068
Si 6.737673 3.998449 9.467788
Si 9.514331 1.338926 9.514226
Si 5.414209 5.425333 0.006805
Si 8.103761 8.041864 0.018410
Si 6.834908 6.643688 1.327149
Si 9.490463 9.508646 1.323819
Si 5.535718 8.079114 2.612587
Si 8.259644 5.419616 2.751718
Si 6.806724 9.433684 3.975351
Si 9.567349 6.819566 4.116128
Si 5.430305 5.493476 5.377443
Si 8.201778 8.151098 5.471429
Si 6.795313 6.791911 6.854658
Si 9.464830 9.463845 6.866629
Si 5.355007 8.173128 8.040220
Si 8.124212 5.432272 8.241588
Si 6.760424 9.407087 9.485382
Si 9.545777 6.800394 9.507807
64
Step 7400
Si 0.078016 10.849704 10.824461
Si 2.762851 2.707938 10.831715
Si 1.340273 1.431536 1.299878
Si 4.085076 4.051708 1.332885
Si 10.843119 2.715137 2.815452
Si 2.675308 10.856008 2.638974
Si 1.306119 4.123731 4.107467
Si 4.096406 1.313326 4.007188
Si 10.857201 10.849119 5.410260
Si 2.667314 2.595570 5.328592
Si 1.276987 1.387537 6.832791
Si 4.033906 3.901837 6.757900
Si 0.027193 2.814353 8.209755
Si 2.762051 0.020205 8.157567
Si 1.431823 4.180306 9.554365
Si 4.157097 1.337303 9.543788
Si 10.847550 5.531954 0.005307
Si 2.772993 8.147816 0.024600
Si 1.394075 6.862815 1.342830
Si 4.138917 9.580705 1.339637
Si 10.844827 8.177508 2.776621
Si 2.659597 5.485523 2.725084
Si 1.413432 9.582566 4.062512
Si 4.091196 6.720096 4.151872
Si 10.759860 5.448852 5.468009
Si 2.675134 8.148965 5.426188
Si 1.347223 6.731606 6.793704
Si 4.056236 9.498512 6.755267
Si 10.859017 8.090093 8.155338
Si 2.781402 5.380903 8.040748
Si 1.444452 9.395041 9.526572
Si 4.034069 6.778776 9.485379
Si 5.513906 10.851712 10.853094
Si 8.169682 2.780566 0.028906
Si 6.786183 1.370801 1.349735
Si 9.594842 4.088463 1.394741
Si 5.464262 2.700852 2.726683
Si 8.130762 10.737385 2.665131
Si 6.818320 4.053060 4.071678
Si 9.414924 1.265437 4.063165
Si 5.434756 0.038133 5.467416
Si 8.095957 2.726851 5.371514
Si 6.805137 1.354938 6.836516
Si 9.441365 4.034148 6.780484
Si 5.491615 2.709602 8.134337
Si 8.219579 0.018641 8.159150
Si 6.878600 4.110441 9.479449
Si 9.530144 1.376785 9.533448
Si 5.438900 5.493336 10.826850
Si 8.141234 8.148680 0.019626
Si 6.781453 6.814963 1.392613
Si 9.542986 9.492025 1.302215
Si 5.336157 8.139416 2.780881
Si 8.174905 5.371051 2.753827
Si 6.727578 9.490461 4.099892
Si 9.430411 6.826324 4.109125
Si 5.438286 5.334514 5.466270
Si 8.078060 8.154122 5.499242
Si 6.664842 6.854638 6.742783
Si 9.549584 9.466708 6.776680
Si 5.342209 8.178276 8.139573
Si 8.052830 5.472397 8.060502
Si 6.845402 9.488501 9.448701
Si 9.452341 6.805753 9.517063
64
Step 7450
Si 0.010966 0.050398 10.839283
Si 2.822852 2.716823 10.803961
Si 1.332170 1.380205 1.282688
Si 4.090753 4.080251 1.295027
Si 10.842168 2.748560 2.661068
Si 2.728463 10.834953 2.671283
Si 1.336715 4.062645 4.090214
Si 4.028906 1.391562 4.040823
Si 0.060502 10.793875 5.259408
Si 2.617891 2.690100 5.447715
Si 1.347597 1.269429 6.742437
Si 4.080508 3.971160 6.807383
Si 0.074437 2.699891 8.133649
Si 2.750600 0.033579 8.067733
Si 1.459474 4.026429 9.509895
Si 4.160101 1.299263 9.481011
Si 0.036831 5.391558 10.837437
Si 2.650250 8.259452 10.791467
Si 1.397501 6.756155 1.323136
Si 4.073587 9.488696 1.409566
Si 10.829916 8.069709 2.744639
Si 2.612876 5.348012 2.685177
Si 1.428042 9.462751 4.002153
Si 3.936593 6.713467 4.094391
Si 10.838772 5.384172 5.427163
Si 2.648303 8.034397 5.509273
Si 1.333662 6.711216 6.897644
Si 4.067520 9.446233 6.788782
Si 10.843751 8.190840 8.165523
Si 2.817480 5.428940 8.225674
Si 1.333980 9.595622 9.408061
Si 4.185824 6.807570 9.547259
Si 5.413680 0.040144 0.052960
Si 8.161156 2.730630 0.082544
Si 6.866123 1.337615 1.379186
Si 9.510776 4.188983 1.350047
Si 5.384632 2.727588 2.620253
Si 8.196210 0.004296 2.738473
Si 6.801196 4.058225 4.038052
Si 9.473892 1.420244 4.090475
Si 5.366205 0.024502 5.454897
Si 8.094905 2.671445 5.436943
Si 6.777375 1.288083 6.832962
Si 9.481695 4.047981 6.822465
Si 5.500064 2.756345 8.187369
Si 8.278615 0.022985 8.145844
Si 6.838665 4.171841 9.598005
Si 9.574485 1.455432 9.540207
Si 5.462791 5.434230 0.089192
Si 8.160319 8.197871 10.860471
Si 6.704119 6.934828 1.397764
Si 9.537586 9.483272 1.357778
Si 5.343233 8.112453 2.847377
Si 8.041915 5.535908 2.679604
Si 6.717983 9.578502 4.143586
Si 9.427363 6.801344 4.053805
Si 5.353505 5.331888 5.440589
Si 8.041322 8.167567 5.413675
Si 6.747062 6.738108 6.731454
Si 9.543021 9.536985 6.738719
Si 5.503287 8.193335 8.229429
Si 8.120901 5.390516 8.109469
Si 6.883385 9.562515 9.497263
Si 9.497471 6.776459 9.494210
64
Step 7500
Si 10.831735 0.043380 0.087388
Si 2.713360 2.647363 10.845174
Si 1.346597 1.316348 1.424075
Si 4.091012 4.064166 1.374607
Si 10.844873 2.685066 2.596459
Si 2.705319 10.831689 2.794309
Si 1.307128 4.027303 4.039854
Si 4.052194 1.396389 4.088370
Si 10.843400 10.804971 5.421595
Si 2.832066 2.858782 5.473748
Si 1.418776 1.333304 6.684406
Si 4.140633 4.217063 6.872190
Si 0.014733 2.649694 8.032005
Si 2.666884 10.806188 8.123482
Si 1.310060 3.978628 9.441728
Si 4.098989 1.284817 9.480693
Si 10.845438 5.349168 10.819173
Si 2.675973 8.183240 10.839312
Si 1.361036 6.747806 1.254730
Si 3.965366 9.487357 1.335301
Si 0.003284 8.002638 2.651233
Si 2.672269 5.419454 2.700531
Si 1.293423 9.380167 4.046052
Si 4.029021 6.735076 4.067208
Si 0.055449 5.430302 5.454893
Si 2.713141 8.093057 5.477574
Si 1.342517 6.751612 6.825556
Si 4.103926 9.441739 6.802571
Si 10.832816 8.167260 8.068915
Si 2.725664 5.477951 8.270102
Si 1.272347 9.556074 9.523134
Si 4.117547 6.909060 9.463481
Si 5.398595 10.833453 0.044768
Si 8.163716 2.713865 0.010297
Si 6.796746 1.352021 1.393014
Si 9.442536 4.163727 1.348914
Si 5.401867 2.703010 2.744887
Si 8.141278 0.077343 2.763363
Si 6.724620 4.086678 4.080003
Si 9.541046 1.419785 4.062049
Si 5.388257 10.856541 5.383657
Si 8.199772 2.720354 5.420236
Si 6.805327 1.395988 6.728223
Si 9.534121 4.099576 6.800514
Si 5.436493 2.683409 8.165085
Si 8.116884 0.010682 8.113201
Si 6.716314 4.107341 9.533673
Si 9.456228 1.375644 9.476807
Si 5.429553 5.512568 0.011166
Si 8.209372 8.152994 10.859164
Si 6.842505 6.861075 1.422063
Si 9.518259 9.534180 1.459646
Si 5.374450 8.206567 2.719337
Si 8.113997 5.493635 2.760734
Si 6.810575 9.499248 4.070061
Si 9.580004 6.828721 4.080374
Si 5.431151 5.465561 5.414315
Si 8.126401 8.119841 5.357220
Si 6.883640 6.694617 6.820274
Si 9.455058 9.542208 6.762798
Si 5.562284 8.163871 8.191844
Si 8.217433 5.415583 8.226662
Si 6.837446 9.467574 9.497086
Si 9.563023 6.811256 9.482709
64
Step 7550
Si 10.799635 10.855246 0.010049
Si 2.674743 2.659571 0.047476
Si 1.318082 1.360622 1.414757
Si 4.031818 4.053886 1.306268
Si 0.056541 2.732009 2.805659
Si 2.657733 0.022553 2.802048
Si 1.491945 4.118852 4.045664
Si 4.101015 1.340043 4.113183
Si 0.010823 0.072568 5.549651
Si 2.771867 2.723036 5.430759
Si 1.396284 1.400469 6.809212
Si 4.093550 4.132093 6.780537
Si 10.818637 2.634603 8.180866
Si 2.716497 10.821300 8.164243
Si 1.350542 4.004252 9.516949
Si 3.980513 1.355791 9.518788
Si 10.827427 5.366118 10.841653
Si 2.730226 8.117393 0.035256
Si 1.351219 6.737219 1.323328
Si 4.066705 9.551419 1.337438
Si 0.037060 8.181991 2.719269
Si 2.879263 5.452956 2.678877
Si 1.332578 9.515357 4.194374
Si 4.197593 6.847167 4.025254
Si 0.076359 5.438057 5.443267
Si 2.805370 8.213329 5.366658
Si 1.436189 6.850201 6.746368
Si 4.096460 9.568939 6.764525
Si 10.842913 8.165511 8.137430
Si 2.656351 5.414185 8.123544
Si 1.312471 9.480749 9.522986
Si 4.037925 6.787994 9.514920
Si 5.405319 10.849271 10.825971
Si 8.062001 2.677839 10.759563
Si 6.661522 1.397667 1.300266
Si 9.454048 3.922753 1.347503
Si 5.455581 2.776772 2.746946
Si 8.041433 10.861707 2.671310
Si 6.781601 4.134217 4.083616
Si 9.506205 1.275753 4.081974
Si 5.493195 10.858644 5.436456
Si 8.183029 2.751878 5.431940
Si 6.741956 1.453175 6.757078
Si 9.550470 4.057881 6.753626
Si 5.382054 2.696863 8.165244
Si 8.000615 0.034194 8.131437
Si 6.682899 4.021631 9.478313
Si 9.397358 1.300779 9.450437
Si 5.411180 5.444974 10.855916
Si 8.160267 8.115622 0.061391
Si 6.834892 6.693074 1.330744
Si 9.461912 9.525994 1.363300
Si 5.479143 8.168463 2.617246
Si 8.160189 5.340815 2.697857
Si 6.818228 9.435636 4.019258
Si 9.571666 6.745664 4.078975
Si 5.525990 5.558924 5.460225
Si 8.228286 8.158391 5.429090
Si 6.884451 6.861812 6.835893
Si 9.482281 9.567237 6.795656
Si 5.389856 8.167018 8.119920
Si 8.163984 5.409992 8.192160
Si 6.750362 9.430556 9.498664
Si 9.505618 6.775356 9.534768
64
Step 7600
Si 10.851453 10.769416 10.797564
Si 2.599725 2.741461 0.067670
Si 1.278279 1.319511 1.388170
Si 4.028398 4.125201 1.356398
Si 10.849652 2.739072 2.833556
Si 2.722871 0.037212 2.658104
Si 1.421107 4.111443 4.117974
Si 4.106262 1.361299 4.005598
Si 10.847667 0.064131 5.433055
Si 2.663798 2.648778 5.415709
Si 1.307350 1.426480 6.912435
Si 4.039192 4.032816 6.683170
Si 10.806870 2.827722 8.292209
Si 2.663937 0.020374 8.180354
Si 1.351103 4.161425 9.571528
Si 4.004999 1.409468 9.527812
Si 0.054368 5.453112 0.122721
Si 2.693922 8.129310 0.022071
Si 1.318675 6.830698 1.446202
Si 4.101504 9.485072 1.399110
Si 0.038389 8.239554 2.756669
Si 2.738405 5.465725 2.713460
Si 1.421190 9.627740 4.061267
Si 4.174917 6.855052 4.071187
Si 0.010621 5.462820 5.368543
Si 2.720580 8.192504 5.372971
Si 1.372932 6.855403 6.769166
Si 4.097938 9.589430 6.787570
Si 0.034039 8.083756 8.235304
Si 2.703837 5.381643 8.056382
Si 1.373927 9.440702 9.513994
Si 3.950407 6.713127 9.535163
Si 5.379434 10.842197 10.829586
Si 8.059499 2.704142 0.019260
Si 6.731612 1.334104 1.313534
Si 9.555018 3.934891 1.380804
Si 5.467680 2.748478 2.722968
Si 8.200467 0.001366 2.649846
Si 6.904642 4.077869 4.076610
Si 9.441183 1.361384 4.041244
Si 5.501620 0.018362 5.370783
Si 8.161571 2.741934 5.477970
Si 6.762914 1.311170 6.808171
Si 9.512279 4.074083 6.760579
Si 5.351380 2.776055 8.092992
Si 8.126339 10.801380 8.173396
Si 6.848409 4.062322 9.391103
Si 9.494908 1.308898 9.560890
Si 5.381359 5.364517 10.797048
Si 8.154387 8.115126 10.805630
Si 6.785844 6.674072 1.309710
Si 9.506050 9.412157 1.322074
Si 5.539172 8.129114 2.654683
Si 8.249884 5.352483 2.676204
Si 6.876322 9.519700 4.054269
Si 9.506372 6.766196 4.060589
Si 5.477036 5.407600 5.452001
Si 8.233249 8.138839 5.493080
Si 6.754075 6.912229 6.771364
Si 9.559129 9.449300 6.842191
Si 5.349553 8.125641 8.146650
Si 8.120584 5.465926 8.013407
Si 6.716437 9.504009 9.530634
Si 9.527207 6.685026 9.511639
64
Step 7650
Si 10.841599 10.859386 10.844598
Si 2.765651 2.771848 0.016710
Si 1.411773 1.294001 1.282719
Si 4.089345 4.136333 1.429931
Si 10.791397 2.675733 2.592956
Si 2.796668 10.843222 2.638819
Si 1.227435 4.007764 4.082208
Si 4.101112 1.413387 4.048324
Si 10.838938 10.825315 5.458070
Si 2.656380 2.666508 5.435197
Si 1.236504 1.356247 6.823608
Si 4.128228 4.033104 6.797504
Si 10.829616 2.761201 8.140568
Si 2.704272 0.106615 8.088014
Si 1.356683 4.114450 9.517958
Si 4.084455 1.427709 9.496983
Si 0.038155 5.528640 0.061400
Si 2.775376 8.149690 10.850504
Si 1.410458 6.848862 1.471720
Si 4.145664 9.437269 1.383756
Si 0.013012 8.169068 2.774433
Si 2.645782 5.400389 2.842040
Si 1.368351 9.568430 4.082604
Si 4.030046 6.803424 4.133097
Si 10.807016 5.500085 5.407798
Si 2.721818 8.158358 5.462161
Si 1.382359 6.751807 6.742606
Si 4.037701 9.522878 6.792653
Si 0.013339 8.066878 8.119120
Si 2.766815 5.441803 8.152821
Si 1.420379 9.526050 9.479528
Si 4.106737 6.745768 9.459431
Si 5.436653 0.022937 10.803556
Si 8.194456 2.757800 0.032281
Si 6.874448 1.330050 1.369249
Si 9.495538 4.210570 1.379849
Si 5.442413 2.688632 2.665677
Si 8.247025 0.007005 2.714096
Si 6.786703 4.005476 4.073001
Si 9.517181 1.357367 4.116309
Si 5.403663 10.835571 5.405384
Si 8.141992 2.665349 5.464415
Si 6.836590 1.208668 6.845725
Si 9.462676 4.119241 6.816945
Si 5.461516 2.639724 8.122116
Si 8.264683 10.785521 8.189994
Si 6.823680 4.089158 9.460556
Si 9.542205 1.350782 9.570615
Si 5.443135 5.379266 10.826378
Si 8.074218 8.079343 10.744436
Si 6.748132 6.803230 1.306824
Si 9.473513 9.414436 1.296436
Si 5.495580 8.081622 2.788768
Si 8.102417 5.545914 2.765061
Si 6.779315 9.573643 4.071232
Si 9.428022 6.855252 4.080360
Si 5.356284 5.364575 5.339038
Si 8.115289 8.221355 5.458391
Si 6.668727 6.772184 6.732747
Si 9.518473 9.443943 6.848533
Si 5.402713 8.164227 8.088687
Si 8.108555 5.466872 8.133397
Si 6.779752 9.543626 9.537945
Si 9.477315 6.750470 9.488152
64
Step 7700
Si 0.078048 0.048793 0.050073
Si 2.790303 2.736272 10.846495
Si 1.420484 1.402904 1.328715
Si 4.088723 4.017205 1.397330
Si 0.044974 2.731081 2.646609
Si 2.715940 0.005733 2.732514
Si 1.274177 4.031963 4.086722
Si 4.007215 1.379769 4.104319
Si 10.845344 10.808520 5.416745
Si 2.685865 2.779613 5.401032
Si 1.392524 1.365745 6.705186
Si 4.066706 3.989185 6.851632
Si 0.033074 2.724224 8.085681
Si 2.706069 0.012582 8.187079
Si 1.375625 4.046539 9.511633
Si 4.160942 1.328319 9.496060
Si 10.849917 5.447779 10.785810
Si 2.782877 8.170781 10.840984
Si 1.430039 6.814452 1.262452
Si 4.057122 9.590779 1.280054
Si 10.836382 8.108524 2.661439
Si 2.629482 5.386533 2.722942
Si 1.332296 9.432193 4.039817
Si 3.973502 6.688872 4.068433
Si 10.787302 5.382499 5.467235
Si 2.676737 8.134557 5.473392
Si 1.339165 6.657181 6.832480
Si 4.028150 9.498331 6.804110
Si 0.049554 8.157228 8.135217
Si 2.780673 5.437225 8.218191
Si 1.421734 9.489981 9.516687
Si 4.153809 6.845695 9.470959
Si 5.547337 0.031509 0.003820
Si 8.241552 2.800250 10.847567
Si 6.906710 1.396014 1.375992
Si 9.518311 4.172081 1.349101
Si 5.424383 2.669125 2.700734
Si 8.078182 10.816148 2.697882
Si 6.704956 3.988611 4.099730
Si 9.552262 1.328692 4.004035
Si 5.369001 0.041364 5.462564
Si 8.150288 2.652768 5.365850
Si 6.863976 1.394997 6.733466
Si 9.416350 4.044868 6.777455
Si 5.532591 2.615684 8.150220
Si 8.177584 0.057084 8.171620
Si 6.726072 4.058970 9.583316
Si 9.594909 1.389315 9.540605
Si 5.475700 5.472689 0.056305
Si 8.145832 8.153049 0.067261
Si 6.764324 6.852710 1.459682
Si 9.544193 9.557211 1.364572
Si 5.251888 8.211313 2.737196
Si 8.089398 5.485478 2.777166
Si 6.687510 9.520551 4.072796
Si 9.452088 6.834517 4.070178
Si 5.405589 5.373425 5.461919
Si 8.012766 8.174096 5.383312
Si 6.761205 6.702405 6.770102
Si 9.481992 9.491533 6.784003
Si 5.442868 8.134571 8.091673
Si 8.107607 5.425758 8.211536
Si 6.823629 9.519357 9.510267
Si 9.518117 6.842830 9.474042
64
Step 7750
Si 0.039207 0.024299 0.005049
Si 2.767024 2.652180 10.811541
Si 1.328752 1.489649 1.428678
Si 4.084600 4.054646 1.324610
Si 0.021877 2.779624 2.805489
Si 2.584394 10.849296 2.801904
Si 1.418437 4.220017 4.059332
Si 4.002923 1.301424 4.095795
Si 0.001777 10.825269 5.381260
Si 2.696067 2.744241 5.468469
Si 1.379542 1.279413 6.751633
Si 4.036297 4.091659 6.810147
Si 0.039358 2.695562 8.136652
Si 2.745966 10.782662 8.166112
Si 1.386540 4.025781 9.447838
Si 4.121916 1.286810 9.473849
Si 10.858720 5.385122 10.772642
Si 2.686740 8.172859 10.848381
Si 1.332905 6.760201 1.206050
Si 4.045294 9.606800 1.394558
Si 10.854782 8.079135 2.669133
Si 2.761600 5.482109 2.585872
Si 1.354923 9.390403 4.079996
Si 4.048045 6.753587 4.037220
Si 10.827401 5.397483 5.499722
Si 2.635803 8.047227 5.410702
Si 1.290686 6.810705 6.852836
Si 4.037955 9.430351 6.770763
Si 10.787002 8.218751 8.131504
Si 2.706080 5.419416 8.159544
Si 1.279959 9.491106 9.430951
Si 4.144976 6.816808 9.526314
Si 5.513709 10.809907 0.024160
Si 8.159343 2.703576 10.838287
Si 6.786692 1.379840 1.355333
Si 9.530349 4.067026 1.347087
Si 5.441132 2.751246 2.735862
Si 8.057292 10.795200 2.719522
Si 6.780517 4.138705 4.085976
Si 9.529588 1.318901 4.024052
Si 5.369523 0.022544 5.490095
Si 8.143041 2.711663 5.414195
Si 6.794465 1.424823 6.746850
Si 9.519542 4.026676 6.788114
Si 5.486060 2.803373 8.172701
Si 8.150510 0.036876 8.130218
Si 6.831834 4.125877 9.604259
Si 9.534427 1.372319 9.417285
Si 5.478107 5.493489 0.102104
Si 8.168946 8.193160 0.081217
Si 6.806126 6.828361 1.470009
Si 9.538074 9.506337 1.366556
Si 5.316472 8.156042 2.745260
Si 8.158794 5.387641 2.649996
Si 6.756199 9.443354 4.113153
Si 9.480824 6.745642 4.039610
Si 5.439715 5.477596 5.524203
Si 8.124122 8.097543 5.373169
Si 6.869627 6.814758 6.799153
Si 9.491959 9.538666 6.711565
Si 5.475565 8.157717 8.209037
Si 8.163585 5.424940 8.137944
Si 6.890802 9.516174 9.478382
Si 9.489434 6.811465 9.544092
64
Step 7800
Si 10.807863 10.854032 0.011797
Si 2.733247 2.644863 10.861034
Si 1.323820 1.324638 1.376732
Si 4.117138 4.102806 1.315287
Si 10.843569 2.672430 2.744726
Si 2.754021 0.023982 2.703930
Si 1.420845 4.076552 4.079590
Si 4.100660 1.373345 4.104811
Si 10.838420 0.067328 5.386176
Si 2.774425 2.688064 5.462743
Si 1.395183 1.293498 6.803083
Si 4.115691 4.154064 6.774895
Si 0.009944 2.621850 8.136530
Si 2.768170 10.831197 8.109107
Si 1.442688 4.026008 9.479746
Si 4.043974 1.375889 9.485794
Si 0.058350 5.368040 0.031386
Si 2.659404 8.168758 10.838723
Si 1.352194 6.777625 1.354887
Si 4.038660 9.421321 1.409897
Si 0.021089 8.103567 2.692013
Si 2.774352 5.446335 2.710928
Si 1.365463 9.530717 4.069355
Si 4.184772 6.856668 4.060710
Si 0.084604 5.457179 5.422342
Si 2.746032 8.106139 5.423609
Si 1.330229 6.841267 6.821699
Si 4.129428 9.437330 6.787697
Si 10.768012 8.177521 8.212634
Si 2.694266 5.474207 8.112144
Si 1.255054 9.577362 9.492241
Si 4.040646 6.848096 9.588372
Si 5.264929 10.858812 0.018449
Si 8.042651 2.576193 0.046711
Si 6.651033 1.302758 1.420432
Si 9.513659 3.946423 1.345003
Si 5.448395 2.740726 2.740275
Si 8.219306 0.050529 2.755334
Si 6.815817 4.125661 4.061164
Si 9.420783 1.457371 4.138487
Si 5.381889 0.023267 5.442102
Si 8.060613 2.769610 5.495808
Si 6.648401 1.350588 6.788446
Si 9.580020 4.082733 6.771819
Si 5.361208 2.829504 8.158896
Si 8.100646 0.014080 8.080347
Si 6.874998 4.053819 9.427113
Si 9.444559 1.322075 9.483001
Si 5.392818 5.412215 10.768475
Si 8.145413 8.138706 10.817563
Si 6.784027 6.783408 1.292627
Si 9.464325 9.496840 1.357522
Si 5.585914 8.207218 2.714433
Si 8.166818 5.356250 2.670241
Si 6.843111 9.570147 4.099236
Si 9.584286 6.705692 4.051252
Si 5.474670 5.475260 5.418600
Si 8.210762 8.102349 5.388580
Si 6.818439 6.876065 6.829471
Si 9.458600 9.531631 6.755515
Si 5.416321 8.169623 8.252896
Si 8.196819 5.426089 8.099557
Si 6.750531 9.530819 9.509007
Si 9.469946 6.712891 9.521012
64
Step 7850
Si 10.777480 10.844045 10.854735
Si 2.641169 2.800053 0.082617
Si 1.392975 1.229661 1.329276
Si 4.072282 4.124113 1.366277
Si 0.003180 2.677125 2.646567
Si 2.784378 10.840979 2.686005
Si 1.387381 3.954448 4.029994
Si 4.097088 1.413172 4.050653
Si 0.008792 10.858896 5.467323
Si 2.707460 2.761036 5.423032
Si 1.348406 1.453895 6.797075
Si 4.093463 4.140736 6.767083
Si 10.842577 2.714354 8.176945
Si 2.641418 0.056398 8.113295
Si 1.284278 4.100712 9.541186
Si 3.976872 1.404189 9.564917
Si 0.006631 5.369577 0.083794
Si 2.679652 8.118080 0.057034
Si 1.356594 6.736107 1.521982
Si 4.072335 9.423299 1.321411
Si 0.035658 8.214232 2.754375
Si 2.755864 5.408061 2.841203
Si 1.327107 9.581114 4.092859
Si 4.155545 6.845694 4.062854
Si 0.089396 5.446496 5.356986
Si 2.779679 8.251620 5.386653
Si 1.431336 6.841634 6.725716
Si 4.052316 9.550262 6.793443
Si 0.043198 8.107530 8.126088
Si 2.641120 5.432974 8.133093
Si 1.341825 9.515846 9.573366
Si 4.005162 6.794676 9.567544
Si 5.348475 0.036906 10.858534
Si 8.106721 2.698698 10.844344
Si 6.759148 1.322589 1.346684
Si 9.456067 3.993393 1.304021
Si 5.397613 2.705936 2.681033
Si 8.195317 0.060275 2.737304
Si 6.828656 4.099988 4.034157
Si 9.477924 1.405857 4.124475
Si 5.507656 10.840903 5.384102
Si 8.177639 2.784887 5.483172
Si 6.772947 1.326507 6.810971
Si 9.556024 4.097318 6.822138
Si 5.316008 2.645308 8.123139
Si 8.064627 10.818058 8.141223
Si 6.736490 4.011293 9.385175
Si 9.428555 1.336743 9.540944
Si 5.374568 5.380465 10.757743
Si 8.116803 8.085831 10.777256
Si 6.811346 6.735131 1.232363
Si 9.438267 9.459598 1.402876
Si 5.551871 8.131379 2.631651
Si 8.196578 5.429005 2.702972
Si 6.865456 9.475325 4.076445
Si 9.555998 6.765999 4.069638
Si 5.487117 5.526063 5.374094
Si 8.276370 8.184253 5.463539
Si 6.827883 6.801474 6.789733
Si 9.510870 9.492789 6.862930
Si 5.413901 8.117601 8.109019
Si 8.165176 5.434951 8.197526
Si 6.693452 9.472051 9.546474
Si 9.611779 6.758441 9.534936
64
Step 7900
Si 0.041081 10.795932 10.850676
Si 2.677256 2.721971 0.036687
Si 1.323189 1.379019 1.353007
Si 4.060135 4.045177 1.394301
Si 10.831144 2.692713 2.749534
Si 2.700854 0.016401 2.723314
Si 1.284065 4.052737 4.059839
Si 4.143431 1.329695 4.019211
Si 0.001525 0.019357 5.507174
Si 2.702784 2.741477 5.351941
Si 1.330974 1.440877 6.841986
Si 4.038332 4.057307 6.743763
Si 10.785879 2.834492 8.201250
Si 2.627029 0.015035 8.205759
Si 1.288561 4.147686 9.553959
Si 4.054747 1.343175 9.465553
Si 10.790966 5.514351 0.020540
Si 2.763250 8.101071 10.859947
Si 1.356168 6.831253 1.434450
Si 4.111536 9.563796 1.293822
Si 10.810138 8.211861 2.787080
Si 2.730956 5.456064 2.739067
Si 1.352929 9.558595 4.116146
Si 4.112108 6.762896 4.091204
Si 10.824624 5.416280 5.458920
Si 2.752084 8.234918 5.434138
Si 1.427056 6.753618 6.715094
Si 4.052398 9.648358 6.827337
Si 0.163010 8.085672 8.083721
Si 2.718990 5.342067 8.121751
Si 1.453277 9.407483 9.547542
Si 4.035347 6.737158 9.426837
Si 5.522087 10.852629 10.788715
Si 8.132058 2.794525 10.798147
Si 6.879755 1.370852 1.313939
Si 9.449593 4.116984 1.370385
Si 5.440327 2.685945 2.747940
Si 8.056661 10.772541 2.688638
Si 6.816204 4.040561 4.101811
Si 9.511109 1.244994 4.034472
Si 5.517038 10.819133 5.402285
Si 8.246414 2.723450 5.388832
Si 6.890350 1.372027 6.759394
Si 9.413138 4.099120 6.818640
Si 5.467154 2.642303 8.051715
Si 8.104754 10.840507 8.205690
Si 6.686190 4.085199 9.488242
Si 9.508017 1.333471 9.508761
Si 5.409305 5.466462 10.846287
Si 8.114517 8.133086 0.025435
Si 6.820221 6.741548 1.336196
Si 9.525815 9.504330 1.337430
Si 5.390331 8.089635 2.671405
Si 8.147058 5.485587 2.750266
Si 6.774049 9.440378 4.083689
Si 9.475351 6.820753 4.105967
Si 5.476203 5.402792 5.465896
Si 8.145372 8.198207 5.508588
Si 6.778942 6.746869 6.834010
Si 9.569019 9.496713 6.866134
Si 5.398487 8.126994 8.001914
Si 8.142497 5.468929 8.169962
Si 6.759924 9.433490 9.475524
Si 9.532154 6.837524 9.484131
64
Step 7950
Si 0.051543 0.042525 0.001779
Si 2.775788 2.669023 10.794214
Si 1.329664 1.472696 1.357265
Si 4.043716 4.012780 1.371134
Si 10.836054 2.733483 2.737159
Si 2.695064 10.857919 2.673473
Si 1.308525 4.121472 4.088687
Si 4.065720 1.349895 4.012146
Si 10.857734 0.048593 5.432424
Si 2.662984 2.636602 5.397449
Si 1.315948 1.352415 6.791431
Si 4.069765 3.911272 6.747666
Si 0.016320 2.718432 8.168813
Si 2.820173 0.063357 8.174005
Si 1.401041 4.073254 9.561813
Si 4.183051 1.409439 9.474224
Si 0.013568 5.527139 0.020225
Si 2.756353 8.166663 10.853640
Si 1.369384 6.882746 1.292449
Si 4.084349 9.554342 1.396800
Si 0.011077 8.115520 2.730130
Si 2.664446 5.452403 2.603908
Si 1.413375 9.505896 4.070746
Si 4.010368 6.723673 4.051217
Si 10.787768 5.425555 5.479177
Si 2.707949 8.042807 5.426220
Si 1.359437 6.734220 6.809978
Si 4.055574 9.474302 6.739440
Si 10.849332 8.141834 8.157970
Si 2.828149 5.360443 8.134149
Si 1.424867 9.510586 9.428064
Si 4.080470 6.736773 9.463396
Si 5.480808 10.840563 10.826148
Si 8.166187 2.730276 0.034453
Si 6.807287 1.347303 1.302471
Si 9.535720 4.168095 1.392668
Si 5.443767 2.697294 2.741275
Si 8.101881 10.771575 2.659930
Si 6.769954 4.004745 4.072690
Si 9.537043 1.291185 4.001996
Si 5.336699 0.025388 5.424260
Si 8.141264 2.598852 5.402779
Si 6.830963 1.324095 6.808565
Si 9.450951 4.063657 6.796058
Si 5.553342 2.740149 8.131888
Si 8.341760 0.029792 8.160731
Si 6.825155 4.064471 9.616985
Si 9.573812 1.421109 9.538426
Si 5.434020 5.398481 0.067100
Si 8.125726 8.173141 0.031560
Si 6.704612 6.818351 1.451854
Si 9.551250 9.503670 1.292301
Si 5.297292 8.178338 2.787827
Si 8.090703 5.457022 2.757412
Si 6.696029 9.502635 4.089756
Si 9.473705 6.845705 4.139936
Si 5.364605 5.320837 5.435771
Si 8.080373 8.151284 5.453884
Si 6.686713 6.828513 6.790846
Si 9.550286 9.509362 6.751790
Si 5.402719 8.186114 8.180213
Si 8.087982 5.474092 8.167241
Si 6.850933 9.601846 9.447526
Si 9.440821 6.826033 9.524463
64
Step 8000
Si 0.013947 0.008676 10.860452
Si 2.766430 2.747550 10.824285
Si 1.366838 1.356157 1.333828
Si 4.103097 4.118757 1.325039
Si 0.006388 2.771150 2.686951
Si 2.682022 10.827005 2.676610
Si 1.330410 4.105321 4.103864
Si 3.970143 1.380779 4.103737
Si 0.006509 10.816581 5.329317
Si 2.675982 2.725872 5.461467
Si 1.356842 1.313855 6.695793
Si 4.131571 4.068287 6.823884
Si 0.108017 2.704494 8.069321
Si 2.782274 10.836120 8.073949
Si 1.429850 4.042636 9.471116
Si 4.133946 1.342941 9.520981
Si 0.042966 5.396980 10.774670
Si 2.662127 8.243690 10.760660
Si 1.366427 6.800192 1.262452
Si 4.019236 9.472453 1.354153
Si 10.856475 8.117670 2.646888
Si 2.634520 5.372686 2.714372
Si 1.376452 9.357106 4.010517
Si 3.969202 6.747080 4.087258
Si 10.799106 5.401555 5.473064
Si 2.645168 8.037985 5.464127
Si 1.273651 6.740046 6.913955
Si 4.051537 9.366962 6.764352
Si 10.776309 8.173294 8.224104
Si 2.777170 5.520846 8.221835
Si 1.291487 9.612287 9.423307
Si 4.120752 6.807672 9.531274
Si 5.429242 10.845967 0.041065
Si 8.223764 2.716558 0.125846
Si 6.806208 1.311184 1.421866
Si 9.552692 4.160175 1.418982
Si 5.408712 2.721768 2.695273
Si 8.227047 0.022569 2.736725
Si 6.791997 4.055227 4.050929
Si 9.485061 1.439561 4.090588
Si 5.329843 0.026667 5.464862
Si 8.084640 2.685356 5.445091
Si 6.790008 1.337672 6.756110
Si 9.514572 4.063483 6.811180
Si 5.511617 2.741277 8.220904
Si 8.211782 0.032864 8.115919
Si 6.934172 4.089530 9.549004
Si 9.582293 1.432032 9.536069
Si 5.478061 5.433112 0.041431
Si 8.194016 8.146751 0.011638
Si 6.735561 6.856885 1.422928
Si 9.478443 9.475000 1.322769
Si 5.419632 8.173071 2.795538
Si 8.100941 5.429760 2.740896
Si 6.794119 9.582818 4.087986
Si 9.484524 6.788423 4.079788
Si 5.391304 5.422012 5.366606
Si 8.078492 8.103246 5.419350
Si 6.746510 6.788843 6.754686
Si 9.467677 9.464445 6.710520
Si 5.474909 8.132106 8.242440
Si 8.138323 5.441327 8.091462
Si 6.864922 9.512197 9.532597
Si 9.463979 6.817460 9.495361
64
Step 8050
Si 10.820318 0.029052 10.826464
Si 2.749136 2.691753 0.049473
Si 1.414638 1.291275 1.366843
Si 4.131018 4.143403 1.344252
Si 0.057194 2.675725 2.718957
Si 2.705014 10.853327 2.769122
Si 1.448421 4.089523 4.055385
Si 4.056445 1.309426 4.122846
Si 10.857638 10.792670 5.433011
Si 2.840724 2.811986 5.471003
Si 1.432925 1.340903 6.710606
Si 4.140961 4.176249 6.867796
Si 0.008697 2.638798 8.118577
Si 2.641795 10.828157 8.119408
Si 1.392277 4.012224 9.446618
Si 4.030490 1.252983 9.504658
Si 10.855883 5.318584 10.793797
Si 2.667711 8.149818 10.860004
Si 1.369419 6.684003 1.327695
Si 4.063188 9.514398 1.338384
Si 0.007349 8.070202 2.664117
Si 2.720265 5.441311 2.767984
Si 1.257207 9.469161 4.038769
Si 4.099903 6.837015 4.084034
Si 0.020885 5.455543 5.430537
Si 2.695875 8.218800 5.446919
Si 1.346273 6.822089 6.789319
Si 4.080651 9.549017 6.827230
Si 10.817595 8.192501 8.059882
Si 2.676172 5.508499 8.198509
Si 1.285871 9.519134 9.558515
Si 4.097018 6.843220 9.526974
Si 5.432849 0.018500 0.068447
Si 8.159605 2.691351 10.856422
Si 6.765004 1.434574 1.404890
Si 9.514454 3.979514 1.320935
Si 5.379954 2.701728 2.667589
Si 8.123220 0.082085 2.805183
Si 6.726422 4.123152 4.069549
Si 9.491490 1.358341 4.133678
Si 5.512561 10.843010 5.436257
Si 8.095248 2.764615 5.449572
Si 6.735726 1.386241 6.778492
Si 9.558006 4.055464 6.830874
Si 5.338334 2.681812 8.231376
Si 7.978435 0.020017 8.175217
Si 6.757165 4.036067 9.430222
Si 9.392597 1.315559 9.423652
Si 5.491971 5.463846 10.826598
Si 8.153911 8.156027 10.854976
Si 6.818360 6.815169 1.390007
Si 9.478324 9.531131 1.417872
Si 5.475205 8.141621 2.656715
Si 8.179551 5.424451 2.666059
Si 6.802247 9.504108 4.073871
Si 9.523440 6.764605 4.015271
Si 5.450321 5.494019 5.452108
Si 8.167844 8.180844 5.407941
Si 6.881163 6.703988 6.752756
Si 9.420296 9.603599 6.800508
Si 5.484900 8.170008 8.099256
Si 8.169182 5.377998 8.155408
Si 6.773696 9.464419 9.529704
Si 9.563476 6.765419 9.488895
64
Step 8100
Si 10.814388 10.827450 0.039235
Si 2.657663 2.663991 0.073289
Si 1.307180 1.344610 1.393913
Si 4.049784 4.037852 1.346513
Si 0.039751 2.651683 2.813071
Si 2.716829 0.052705 2.771316
Si 1.464783 4.080114 4.007670
Si 4.154635 1.363972 4.012907
Si 10.854165 0.086022 5.487389
Si 2.751676 2.679394 5.416161
Si 1.382806 1.381061 6.891062
Si 3.994903 4.117129 6.741302
Si 10.777485 2.695994 8.190176
Si 2.625964 10.849316 8.216225
Si 1.322906 4.040610 9.504868
Si 3.958474 1.362306 9.569004
Si 10.827760 5.386665 0.036175
Si 2.740781 8.064153 0.080337
Si 1.320205 6.720110 1.365817
Si 4.062942 9.483481 1.382008
Si 10.851458 8.159846 2.694404
Si 2.827183 5.467412 2.733805
Si 1.311007 9.626152 4.128513
Si 4.162564 6.897368 4.079146
Si 0.098749 5.439655 5.371802
Si 2.787443 8.231387 5.407379
Si 1.425805 6.886750 6.691496
Si 4.103142 9.568220 6.832299
Si 10.854006 8.111804 8.085951
Si 2.628189 5.390666 8.100247
Si 1.342510 9.419193 9.606914
Si 4.020708 6.813843 9.462504
Si 5.384178 10.858260 0.007093
Si 8.066746 2.702293 10.806141
Si 6.694723 1.436509 1.377751
Si 9.509607 3.918053 1.319879
Si 5.496963 2.768276 2.723629
Si 8.140116 0.023386 2.683425
Si 6.837416 4.121397 4.096538
Si 9.478944 1.349990 4.061619
Si 5.446378 10.859837 5.380389
Si 8.189503 2.789658 5.405061
Si 6.730447 1.446340 6.784768
Si 9.548773 4.078570 6.712269
Si 5.288621 2.736007 8.135104
Si 8.054877 10.848689 8.164753
Si 6.662721 4.110058 9.473878
Si 9.477115 1.309842 9.517251
Si 5.380440 5.472844 10.805681
Si 8.186339 8.143369 10.826321
Si 6.882007 6.740421 1.270862
Si 9.511154 9.555290 1.386285
Si 5.501185 8.115083 2.599853
Si 8.227208 5.324224 2.654573
Si 6.805789 9.449487 4.034038
Si 9.552513 6.720154 4.054906
Si 5.504121 5.497054 5.490515
Si 8.270352 8.129970 5.397064
Si 6.879312 6.799374 6.832780
Si 9.520434 9.526337 6.842191
Si 5.383711 8.140168 8.088646
Si 8.219455 5.402218 8.179573
Si 6.686797 9.452332 9.536633
Si 9.552124 6.719629 9.539627
64
Step 8150
Si 10.837288 10.793305 0.024099
Si 2.644023 2.751637 0.006466
Si 1.284514 1.330190 1.390656
Si 4.035543 4.082024 1.328194
Si 10.764003 2.762722 2.729414
Si 2.753740 10.836981 2.685769
Si 1.354958 4.044211 4.057448
Si 4.086832 1.422683 4.050577
Si 10.845056 0.009037 5.470564
Si 2.608954 2.623976 5.425686
Si 1.280308 1.360327 6.896799
Si 4.022145 4.040746 6.723920
Si 10.822390 2.757534 8.213522
Si 2.712316 0.028008 8.218059
Si 1.311633 4.118456 9.546682
Si 4.070932 1.475460 9.522888
Si 0.023407 5.491824 0.091191
Si 2.709878 8.151342 0.003645
Si 1.380722 6.868857 1.479675
Si 4.100477 9.425004 1.407244
Si 0.045477 8.224397 2.790659
Si 2.764894 5.455411 2.721081
Si 1.450110 9.583535 4.152777
Si 4.132463 6.788432 4.070339
Si 0.056662 5.424735 5.381264
Si 2.791736 8.154680 5.381064
Si 1.394097 6.796753 6.749276
Si 4.112739 9.533898 6.743102
Si 0.037418 8.099667 8.210919
Si 2.704630 5.331515 8.037707
Si 1.391837 9.444968 9.465528
Si 4.009543 6.725510 9.459027
Si 5.363590 10.809021 10.807260
Si 8.073903 2.728459 10.800902
Si 6.728777 1.305811 1.280762
Si 9.456147 4.090638 1.328547
Si 5.540036 2.748986 2.712385
Si 8.143630 10.780335 2.615950
Si 6.876238 4.097541 4.110102
Si 9.466654 1.344125 4.077850
Si 5.443489 0.031690 5.403831
Si 8.184446 2.700524 5.538923
Si 6.770124 1.320916 6.845372
Si 9.493213 4.117269 6.728897
Si 5.469745 2.721385 8.047465
Si 8.236089 10.836529 8.085897
Si 6.783751 4.097438 9.491431
Si 9.464561 1.357908 9.573953
Si 5.404216 5.386568 10.811277
Si 8.120894 8.099840 10.803276
Si 6.784990 6.705795 1.284136
Si 9.493003 9.420506 1.343003
Si 5.521625 8.153266 2.785967
Si 8.164519 5.476109 2.725529
Si 6.868555 9.506465 4.095136
Si 9.521425 6.852367 4.068442
Si 5.451966 5.435039 5.433779
Si 8.180148 8.121955 5.452327
Si 6.732598 6.916632 6.797947
Si 9.548770 9.390131 6.832054
Si 5.355214 8.140484 8.203422
Si 8.108931 5.469014 8.091917
Si 6.818837 9.584621 9.472484
Si 9.473106 6.760842 9.498526
64
Step 8200
Si 0.046715 0.015539 10.855031
Si 2.719156 2.752017 10.843720
Si 1.375238 1.372722 1.357417
Si 4.092302 4.071181 1.364899
Si 10.783057 2.722525 2.600208
Si 2.739451 0.003345 2.611429
Si 1.187171 3.971044 4.088713
Si 4.030753 1.385389 4.059605
Si 10.854288 10.829058 5.401584
Si 2.656297 2.707347 5.393611
Si 1.288574 1.350622 6.712499
Si 4.108735 4.043969 6.794707
Si 0.023278 2.758255 8.171322
Si 2.748908 0.072723 8.108170
Si 1.334828 4.132494 9.602890
Si 4.109269 1.347994 9.465871
Si 0.009598 5.498618 0.029837
Si 2.730968 8.194326 10.827184
Si 1.434465 6.850316 1.380468
Si 4.132986 9.570646 1.344022
Si 0.053934 8.208370 2.742003
Si 2.656784 5.361446 2.716557
Si 1.467120 9.475727 4.079612
Si 4.049379 6.672413 4.062074
Si 10.793559 5.429885 5.444535
Si 2.739736 8.125060 5.499591
Si 1.352730 6.673079 6.812139
Si 4.052751 9.547943 6.772720
Si 0.109352 8.117227 8.196729
Si 2.806898 5.389045 8.165813
Si 1.424586 9.580259 9.399542
Si 4.079667 6.773485 9.532232
Si 5.465472 0.046985 10.851955
Si 8.151085 2.740426 0.026372
Si 6.846982 1.322960 1.372213
Si 9.459598 4.207114 1.411683
Si 5.404403 2.650539 2.716419
Si 8.167067 10.849113 2.706640
Si 6.730811 4.012456 4.030197
Si 9.535863 1.319198 4.088225
Si 5.410936 0.028459 5.426984
Si 8.201754 2.697323 5.421370
Si 6.876621 1.304033 6.787979
Si 9.468038 4.086521 6.831211
Si 5.514199 2.624252 8.107819
Si 8.226956 10.838505 8.217965
Si 6.890258 4.053901 9.497423
Si 9.555619 1.372441 9.524459
Si 5.451894 5.365145 0.022155
Si 8.041098 8.126144 0.012307
Si 6.728520 6.750920 1.399260
Si 9.463836 9.449581 1.318553
Si 5.372427 8.180986 2.794076
Si 8.062971 5.527366 2.768365
Si 6.774967 9.589229 4.075048
Si 9.492817 6.851128 4.075548
Si 5.408744 5.301494 5.379493
Si 8.037807 8.195343 5.484174
Si 6.672071 6.774953 6.787464
Si 9.573273 9.488298 6.801961
Si 5.398267 8.173407 8.144106
Si 8.072078 5.486349 8.086513
Si 6.796024 9.493013 9.492173
Si 9.476923 6.810382 9.487149
64
Step 8250
Si 0.023199 0.029529 10.822970
Si 2.804435 2.690046 10.823653
Si 1.410478 1.399045 1.277674
Si 4.071342 4.066745 1.408947
Si 0.061366 2.712250 2.727398
Si 2.657791 0.001953 2.717074
Si 1.290873 4.154702 4.114893
Si 4.024617 1.304012 4.096107
Si 0.030990 10.787789 5.404263
Si 2.705755 2.807574 5.406481
Si 1.357567 1.428904 6.710944
Si 4.100472 4.017806 6.885698
Si 0.035149 2.758249 8.117558
Si 2.731593 0.020422 8.060468
Si 1.361071 4.088377 9.529962
Si 4.142787 1.325889 9.440894
Si 10.823112 5.453074 10.813460
Si 2.772594 8.174426 0.003849
Si 1.345711 6.754039 1.253289
Si 4.074924 9.592698 1.324338
Si 10.824950 8.076733 2.632416
Si 2.657539 5.436545 2.673356
Si 1.279372 9.338996 3.997218
Si 3.943045 6.711451 4.042918
Si 10.747781 5.494885 5.448525
Si 2.626056 8.071047 5.486639
Si 1.356066 6.726301 6.854944
Si 4.017494 9.461767 6.785875
Si 10.857826 8.178243 8.084153
Si 2.776658 5.465768 8.242522
Si 1.364040 9.540095 9.502498
Si 4.159460 6.822381 9.583626
Si 5.566287 0.058537 0.003158
Si 8.232894 2.769216 0.021085
Si 6.926009 1.384503 1.394757
Si 9.503665 4.105591 1.396978
Si 5.337657 2.676681 2.706517
Si 8.149389 10.844097 2.750963
Si 6.717387 4.038211 4.056501
Si 9.557024 1.309864 4.031435
Si 5.440848 0.044950 5.466682
Si 8.167260 2.685787 5.347456
Si 6.872426 1.381347 6.781709
Si 9.498792 4.044517 6.824763
Si 5.488941 2.654848 8.171878
Si 8.171848 10.859082 8.200907
Si 6.825015 4.048889 9.520237
Si 9.610328 1.394729 9.485019
Si 5.442094 5.460771 0.071421
Si 8.163125 8.140458 0.083730
Si 6.735472 6.845850 1.469931
Si 9.581459 9.525246 1.332280
Si 5.232417 8.125350 2.724927
Si 8.105812 5.456087 2.756223
Si 6.676304 9.434146 4.054491
Si 9.468230 6.851593 4.114201
Si 5.348807 5.361970 5.435039
Si 8.109655 8.220654 5.449311
Si 6.816755 6.686251 6.733145
Si 9.483461 9.569218 6.731572
Si 5.458654 8.125228 8.096526
Si 8.159464 5.443927 8.219240
Si 6.771623 9.421031 9.512692
Si 9.528691 6.861662 9.502611
64
Step 8300
Si 0.018014 10.844376 10.838231
Si 2.795707 2.643271 10.815063
Si 1.379915 1.372710 1.386306
Si 4.108417 4.005221 1.386685
Si 0.055750 2.738094 2.807096
Si 2.706580 10.860127 2.792308
Si 1.433006 4.151215 4.109381
Si 4.042759 1.322757 4.090439
Si 0.019598 0.018373 5.423382
Si 2.754383 2.712442 5.479184
Si 1.418609 1.311583 6.834492
Si 4.050207 4.096536 6.779774
Si 0.008006 2.739830 8.048109
Si 2.760103 10.775846 8.086844
Si 1.462607 3.998336 9.426063
Si 4.140472 1.303077 9.487714
Si 10.846376 5.329540 10.800600
Si 2.715196 8.204239 10.816669
Si 1.311353 6.798451 1.256102
Si 4.024561 9.483426 1.355006
Si 10.821899 8.095065 2.705648
Si 2.704654 5.476837 2.685678
Si 1.293565 9.501526 4.039321
Si 4.057467 6.816939 4.098724
Si 0.018933 5.482645 5.456636
Si 2.644115 8.133210 5.389630
Si 1.343336 6.892135 6.848001
Si 4.082541 9.415042 6.806934
Si 10.738698 8.229728 8.148611
Si 2.683286 5.470471 8.161823
Si 1.325433 9.489074 9.511404
Si 4.139648 6.802294 9.502389
Si 5.455640 10.780964 0.034312
Si 8.175948 2.722984 0.027136
Si 6.780330 1.343415 1.349021
Si 9.550133 3.990324 1.356930
Si 5.455205 2.752743 2.754319
Si 8.106132 0.003333 2.744311
Si 6.820794 4.093885 4.170180
Si 9.471106 1.377318 3.989775
Si 5.388213 10.828897 5.470069
Si 8.100307 2.701488 5.388168
Si 6.735748 1.362140 6.749176
Si 9.474227 4.069778 6.740579
Si 5.426729 2.821625 8.195929
Si 8.094869 0.042807 8.081350
Si 6.774726 4.109723 9.565385
Si 9.485641 1.370429 9.459534
Si 5.436389 5.491334 0.037057
Si 8.167160 8.162000 10.840052
Si 6.809073 6.835005 1.389702
Si 9.504269 9.566515 1.352817
Si 5.467173 8.156186 2.709618
Si 8.124094 5.301122 2.692114
Si 6.722170 9.513821 4.115903
Si 9.415100 6.714139 4.068518
Si 5.463571 5.536293 5.501274
Si 8.138882 8.092811 5.399563
Si 6.840504 6.809830 6.818474
Si 9.450828 9.523002 6.740127
Si 5.492098 8.125823 8.177320
Si 8.188019 5.385102 8.175827
Si 6.844195 9.545262 9.460687
Si 9.457440 6.801514 9.516516
64
Step 8350
Si 10.815878 0.053228 0.061655
Si 2.675824 2.705085 0.045026
Si 1.332949 1.324008 1.416772
Si 4.072663 4.064532 1.360716
Si 0.021382 2.734061 2.721092
Si 2.745220 10.844852 2.715581
Si 1.467413 4.060071 4.008730
Si 4.073966 1.407181 4.042362
Si 10.845548 0.071422 5.427150
Si 2.761486 2.709419 5.517050
Si 1.375675 1.233339 6.826575
Si 4.060380 4.160430 6.751551
Si 0.004379 2.642011 8.171714
Si 2.733370 10.850045 8.210130
Si 1.420661 4.000078 9.476331
Si 4.063022 1.379285 9.548265
Si 0.109977 5.386774 0.018123
Si 2.582633 8.106347 0.031904
Si 1.373349 6.748210 1.440739
Si 4.063587 9.406603 1.394334
Si 0.011210 8.175011 2.702644
Si 2.748889 5.435389 2.747105
Si 1.352130 9.616170 4.089644
Si 4.171928 6.848172 4.067695
Si 0.095754 5.376732 5.398882
Si 2.735189 8.201067 5.353724
Si 1.282037 6.861958 6.727395
Si 4.106699 9.498847 6.815438
Si 10.812230 8.134474 8.177539
Si 2.627289 5.415497 8.093934
Si 1.292883 9.503020 9.556325
Si 3.982021 6.718036 9.481580
Si 5.304154 10.849507 0.011619
Si 8.076423 2.592394 10.836237
Si 6.630088 1.344851 1.363878
Si 9.534603 4.005652 1.285799
Si 5.442148 2.755693 2.671279
Si 8.142311 0.028582 2.683186
Si 6.804625 4.085574 4.059491
Si 9.456490 1.409170 4.085115
Si 5.398539 10.852027 5.421572
Si 8.093158 2.796151 5.458658
Si 6.711446 1.379827 6.783602
Si 9.576377 4.081638 6.746966
Si 5.362858 2.838333 8.193253
Si 8.127615 0.099105 8.077598
Si 6.718021 4.042091 9.510379
Si 9.440165 1.349961 9.451856
Si 5.425590 5.385780 10.854384
Si 8.163423 8.150682 10.834381
Si 6.835003 6.751617 1.277770
Si 9.448705 9.495432 1.385894
Si 5.583204 8.133214 2.694467
Si 8.241069 5.359926 2.694845
Si 6.880110 9.567562 4.083760
Si 9.591472 6.717720 3.986585
Si 5.467433 5.554689 5.444199
Si 8.204364 8.071820 5.347304
Si 6.807834 6.847715 6.861801
Si 9.483444 9.536563 6.801168
Si 5.439828 8.155990 8.232913
Si 8.150720 5.370843 8.090695
Si 6.836216 9.618451 9.535989
Si 9.526848 6.684119 9.557644
64
Step 8400
Si 10.811334 10.849265 0.018799
Si 2.620280 2.744562 0.073374
Si 1.325660 1.288275 1.343199
Si 4.063838 4.155423 1.324597
Si 10.791129 2.675950 2.665336
Si 2.760207 10.819092 2.670630
Si 1.347719 3.986693 4.035488
Si 4.123581 1.337065 4.094253
Si 10.816933 0.011994 5.440062
Si 2.731006 2.696409 5.391949
Si 1.331187 1.346095 6.752375
Si 4.064108 4.106011 6.755230
Si 0.009449 2.692139 8.198645
Si 2.622264 10.854968 8.218660
Si 1.264684 4.153803 9.544747
Si 3.966512 1.374562 9.488835
Si 10.824344 5.450637 0.068585
Si 2.724175 8.107867 0.019606
Si 1.416350 6.781144 1.440155
Si 4.116029 9.459830 1.360815
Si 0.025783 8.169803 2.713790
Si 2.772973 5.405215 2.823454
Si 1.430876 9.517830 4.160359
Si 4.212707 6.872063 4.140996
Si 10.841761 5.408019 5.371009
Si 2.816575 8.210808 5.519650
Si 1.376954 6.733245 6.690262
Si 4.107576 9.583515 6.814640
Si 0.074060 8.076545 8.096423
Si 2.709013 5.478002 8.137842
Si 1.321584 9.454364 9.540626
Si 4.011681 6.821504 9.485047
Si 5.396019 0.015534 10.817096
Si 8.071027 2.696451 10.826379
Si 6.758692 1.372786 1.387512
Si 9.428347 4.062817 1.315746
Si 5.399751 2.708632 2.729999
Si 8.157949 0.013770 2.746283
Si 6.815339 4.135915 3.982350
Si 9.509527 1.401967 4.167807
Si 5.500159 0.025723 5.414129
Si 8.143769 2.795287 5.425581
Si 6.841689 1.394390 6.766448
Si 9.524014 4.082163 6.836898
Si 5.377248 2.675653 8.119651
Si 8.073987 10.792388 8.176097
Si 6.738987 4.028717 9.373712
Si 9.479696 1.342305 9.511397
Si 5.435227 5.440876 10.770062
Si 8.143432 8.080822 10.831871
Si 6.799377 6.737926 1.267078
Si 9.480128 9.441075 1.376492
Si 5.467997 8.141660 2.675950
Si 8.236863 5.489595 2.675758
Si 6.851878 9.434541 4.079232
Si 9.555221 6.854018 4.076240
Si 5.451379 5.443966 5.423492
Si 8.201286 8.197053 5.506465
Si 6.830484 6.843415 6.804777
Si 9.563016 9.499712 6.850524
Si 5.335624 8.146857 8.123898
Si 8.176990 5.509355 8.138083
Si 6.674412 9.381697 9.531480
Si 9.594055 6.774267 9.456068
64
Step 8450
Si 10.841853 10.780608 10.813381
Si 2.750158 2.748702 0.018894
Si 1.349151 1.354757 1.308527
Si 4.020534 4.097030 1.354200
Si 10.819966 2.686026 2.670509
Si 2.681174 0.001797 2.742355
Si 1.295339 4.071406 4.082697
Si 4.129328 1.332175 4.050063
Si 0.045350 10.830360 5.430875
Si 2.636130 2.681301 5.315075
Si 1.306661 1.526120 6.804656
Si 4.082925 3.948009 6.769965
Si 10.810727 2.788089 8.175370
Si 2.663749 0.072194 8.157584
Si 1.304774 4.089196 9.567466
Si 4.024663 1.382796 9.511905
Si 10.842417 5.495157 0.013521
Si 2.821784 8.162871 0.034778
Si 1.363164 6.799117 1.406691
Si 4.125452 9.597016 1.328952
Si 0.022137 8.162423 2.760759
Si 2.703184 5.395490 2.684467
Si 1.406232 9.465824 4.074581
Si 4.067578 6.728362 4.116664
Si 10.818588 5.412968 5.425147
Si 2.750564 8.154861 5.447197
Si 1.483685 6.689794 6.790644
Si 4.027869 9.556838 6.750452
Si 0.094817 8.132600 8.099499
Si 2.779521 5.322460 8.134835
Si 1.426891 9.524593 9.474638
Si 4.090442 6.796558 9.517214
Si 5.485353 0.057444 0.003213
Si 8.124026 2.812824 10.828540
Si 6.873587 1.335830 1.345196
Si 9.433107 4.120219 1.371736
Si 5.466957 2.684404 2.735616
Si 8.141764 10.857123 2.702841
Si 6.749648 4.082864 4.082578
Si 9.523260 1.281810 4.054671
Si 5.519988 0.008803 5.428279
Si 8.185433 2.653378 5.414902
Si 6.869016 1.340607 6.805212
Si 9.481944 4.063081 6.807772
Si 5.462469 2.605707 8.101202
Si 8.150518 10.804189 8.224166
Si 6.772334 4.041269 9.397219
Si 9.496282 1.343515 9.549203
Si 5.390592 5.391298 10.845230
Si 8.112189 8.188278 0.005890
Si 6.744375 6.782294 1.362921
Si 9.528744 9.485443 1.390639
Si 5.364597 8.146197 2.744796
Si 8.050966 5.493269 2.755877
Si 6.751776 9.488387 4.066433
Si 9.451009 6.869594 4.134049
Si 5.392380 5.340248 5.414506
Si 8.173220 8.224201 5.513718
Si 6.787421 6.753487 6.729821
Si 9.524411 9.524087 6.829883
Si 5.458109 8.176360 8.095569
Si 8.170779 5.474709 8.181052
Si 6.762578 9.496677 9.486649
Si 9.460265 6.868937 9.479051
64
Step 8500
Si 0.117289 10.856473 10.832041
Si 2.760052 2.687998 10.832138
Si 1.348924 1.391626 1.402772
Si 4.050744 4.043612 1.359036
Si 10.854083 2.785607 2.684028
Si 2.681857 0.053896 2.696373
Si 1.280235 4.104300 4.079362
Si 4.018325 1.373325 4.008363
Si 0.058629 10.845251 5.415580
Si 2.625213 2.686627 5.422971
Si 1.345525 1.418074 6.825272
Si 4.057510 3.987145 6.820077
Si 10.854793 2.773302 8.127314
Si 2.785670 0.025483 8.075253
Si 1.409343 4.073734 9.546423
Si 4.143133 1.355377 9.523240
Si 0.003680 5.486899 10.842095
Si 2.772015 8.151603 10.791966
Si 1.323673 6.836681 1.243777
Si 4.023989 9.517776 1.376888
Si 10.848355 8.102120 2.751119
Si 2.627847 5.418598 2.573439
Si 1.316296 9.487933 4.011493
Si 3.967319 6.681029 4.005676
Si 0.001085 5.481807 5.506570
Si 2.671068 8.064335 5.412500
Si 1.357424 6.776524 6.935953
Si 4.052412 9.418164 6.772574
Si 0.011479 8.158024 8.226999
Si 2.753243 5.344092 8.159838
Si 1.474520 9.568412 9.437539
Si 4.121472 6.744048 9.480894
Si 5.451317 0.016737 0.062139
Si 8.235450 2.812990 0.030591
Si 6.875940 1.396916 1.322793
Si 9.558987 4.201700 1.395013
Si 5.514864 2.680127 2.744283
Si 8.148496 10.820716 2.690649
Si 6.744210 3.986925 4.127817
Si 9.565931 1.326205 3.959263
Si 5.327657 10.815999 5.417685
Si 8.226793 2.601207 5.398274
Si 6.791273 1.272027 6.773174
Si 9.436320 4.108682 6.741353
Si 5.515501 2.732147 8.119618
Si 8.293224 0.057610 8.147226
Si 6.832441 4.146993 9.594008
Si 9.552390 1.401156 9.564972
Si 5.417676 5.439439 0.079969
Si 8.104392 8.163086 0.060192
Si 6.721865 6.800642 1.476767
Si 9.536050 9.538359 1.302771
Si 5.356195 8.143609 2.733039
Si 8.009657 5.449224 2.768125
Si 6.725388 9.552765 4.092396
Si 9.440079 6.701476 4.107089
Si 5.425768 5.374207 5.411752
Si 8.098284 8.116767 5.415472
Si 6.682795 6.763242 6.795148
Si 9.566270 9.468287 6.750336
Si 5.465454 8.141271 8.165541
Si 8.091712 5.442302 8.160910
Si 6.869117 9.588781 9.451388
Si 9.423200 6.822565 9.544677
64
Step 8550
Si 0.009030 0.113395 0.043461
Si 2.803328 2.655399 10.799452
Si 1.391162 1.398916 1.367852
Si 4.072561 4.074469 1.375601
Si 0.026466 2.771668 2.767956
Si 2.717861 10.817676 2.699362
Si 1.369726 4.141861 4.105431
Si 3.996401 1.375473 4.125132
Si 10.836447 10.826271 5.413234
Si 2.744689 2.769573 5.527526
Si 1.405372 1.242192 6.736093
Si 4.133316 4.078904 6.861260
Si 0.076216 2.675616 8.099903
Si 2.815482 10.827175 8.122338
Si 1.416039 4.048513 9.443676
Si 4.250182 1.329094 9.474144
Si 10.844770 5.455602 10.787887
Si 2.661287 8.156022 10.798365
Si 1.352247 6.819876 1.302298
Si 4.064877 9.475558 1.341822
Si 10.791930 8.116809 2.660930
Si 2.723652 5.470581 2.736200
Si 1.254727 9.390935 4.050225
Si 3.963120 6.828718 4.031038
Si 10.826531 5.454107 5.486017
Si 2.633337 8.079400 5.450143
Si 1.243486 6.837130 6.787663
Si 4.115120 9.443802 6.790014
Si 10.769291 8.194636 8.187619
Si 2.708311 5.483184 8.152262
Si 1.317199 9.522186 9.515794
Si 4.131152 6.784165 9.477293
Si 5.451946 10.822605 10.830875
Si 8.183180 2.659616 0.021723
Si 6.770905 1.369358 1.352989
Si 9.539712 4.105338 1.321774
Si 5.424149 2.663441 2.714817
Si 8.181319 10.819621 2.723217
Si 6.729754 3.985239 4.085487
Si 9.506474 1.362724 4.131134
Si 5.410465 10.860134 5.399249
Si 8.114515 2.708297 5.477267
Si 6.775838 1.349499 6.750678
Si 9.465640 4.055908 6.848259
Si 5.477417 2.746563 8.149295
Si 8.155479 0.032632 8.060972
Si 6.798476 4.110104 9.599643
Si 9.574766 1.380380 9.426309
Si 5.498078 5.435396 0.065149
Si 8.138728 8.157601 0.015370
Si 6.811637 6.846986 1.441354
Si 9.513333 9.533804 1.303855
Si 5.373518 8.137186 2.762564
Si 8.181850 5.413995 2.772128
Si 6.797678 9.480395 4.064684
Si 9.507649 6.807495 4.068800
Si 5.409294 5.460953 5.420313
Si 8.067627 8.126702 5.415612
Si 6.745314 6.784205 6.778574
Si 9.451738 9.473695 6.753133
Si 5.468892 8.173276 8.162769
Si 8.082234 5.427052 8.112372
Si 6.873114 9.540818 9.541398
Si 9.499863 6.818110 9.494240
64
Step 8600
Si 10.857096 0.081918 0.035018
Si 2.714416 2.767042 0.038341
Si 1.432468 1.398376 1.364045
Si 4.104187 4.088031 1.337686
Si 0.026537 2.658588 2.759620
Si 2.715463 10.856606 2.720381
Si 1.431633 4.030288 4.119292
Si 4.085539 1.293133 4.075774
Si 10.838830 0.016583 5.408131
Si 2.836441 2.736943 5.431159
Si 1.415267 1.286248 6.753390
Si 4.081866 4.162276 6.772398
Si 0.040334 2.658858 8.177703
Si 2.660663 10.822505 8.175559
Si 1.380814 4.021362 9.451852
Si 4.029530 1.324886 9.489388
Si 10.841517 5.298382 10.815417
Si 2.661378 8.158035 0.026409
Si 1.367423 6.701727 1.368922
Si 4.030184 9.490838 1.336145
Si 0.031925 8.157007 2.646856
Si 2.776973 5.416294 2.855685
Si 1.362097 9.509967 4.075978
Si 4.074785 6.907476 4.104305
Si 10.833716 5.360878 5.406950
Si 2.663246 8.232039 5.469465
Si 1.326514 6.804293 6.692974
Si 4.097385 9.598870 6.811959
Si 10.830733 8.185771 8.124883
Si 2.707694 5.537280 8.194672
Si 1.274628 9.461239 9.591517
Si 4.053559 6.830053 9.579445
Si 5.442655 10.823991 10.843051
Si 8.126043 2.652422 0.018554
Si 6.742244 1.358529 1.429995
Si 9.508669 3.938056 1.340830
Si 5.359212 2.737503 2.696091
Si 8.173299 0.113384 2.776819
Si 6.760755 4.127679 3.984959
Si 9.477454 1.436412 4.130325
Si 5.447092 0.024617 5.417488
Si 8.081405 2.876719 5.398172
Si 6.747189 1.449965 6.744167
Si 9.594041 4.009554 6.860851
Si 5.362405 2.730231 8.175416
Si 8.008855 0.014001 8.165824
Si 6.752408 4.051341 9.547194
Si 9.452592 1.349928 9.471717
Si 5.472903 5.423609 10.806784
Si 8.169982 8.107959 10.845200
Si 6.889809 6.724564 1.310781
Si 9.496189 9.554819 1.392242
Si 5.479947 8.157297 2.671573
Si 8.253925 5.309622 2.628748
Si 6.820372 9.500760 3.984768
Si 9.489172 6.781521 4.017525
Si 5.428352 5.433516 5.432825
Si 8.158377 8.146255 5.400873
Si 6.853596 6.752834 6.782190
Si 9.408791 9.560428 6.767171
Si 5.397294 8.143501 8.116782
Si 8.176105 5.396484 8.152590
Si 6.735140 9.434394 9.533487
Si 9.594785 6.746348 9.527681
64
Step 8650
Si 10.802742 10.745140 0.002768
Si 2.702718 2.784730 0.058008
Si 1.333679 1.296860 1.335787
Si 4.084409 4.127598 1.391261
Si 0.070777 2.675521 2.732593
Si 2.724277 10.847550 2.722977
Si 1.447995 4.041281 4.078062
Si 4.178840 1.348123 4.031593
Si 10.854908 0.039420 5.510177
Si 2.734332 2.655163 5.397151
Si 1.323152 1.413034 6.872540
Si 4.048911 4.153052 6.696711
Si 10.733690 2.710748 8.196628
Si 2.625853 0.041599 8.188696
Si 1.347410 4.087569 9.507362
Si 3.922080 1.362254 9.510879
Si 0.070167 5.395881 0.030658
Si 2.661168 8.090608 0.096009
Si 1.322855 6.733347 1.462194
Si 4.132301 9.465271 1.389092
Si 0.030568 8.105858 2.762975
Si 2.710125 5.479281 2.753170
Si 1.377125 9.597106 4.093378
Si 4.177611 6.815952 4.065538
Si 0.069698 5.448809 5.374332
Si 2.755917 8.224183 5.404934
Si 1.411474 6.835228 6.766015
Si 4.065778 9.552122 6.831801
Si 10.846692 8.113188 8.081056
Si 2.661407 5.426482 8.087429
Si 1.324605 9.447993 9.505823
Si 3.992642 6.815088 9.479393
Si 5.362290 0.004425 0.006361
Si 8.037525 2.698848 10.807192
Si 6.757633 1.299734 1.338646
Si 9.512297 3.982295 1.371413
Si 5.424608 2.807723 2.677378
Si 8.117493 0.036519 2.691315
Si 6.833226 4.233774 4.089694
Si 9.467514 1.384213 4.101099
Si 5.494725 10.851324 5.469149
Si 8.121233 2.755289 5.460374
Si 6.725726 1.409441 6.855732
Si 9.553873 4.129996 6.729543
Si 5.338936 2.714081 8.156319
Si 8.069125 10.844826 8.168130
Si 6.769269 4.069673 9.407557
Si 9.394207 1.233755 9.543615
Si 5.417147 5.426388 10.754438
Si 8.236260 8.154297 10.810169
Si 6.831095 6.770267 1.231864
Si 9.490288 9.470876 1.419156
Si 5.541815 8.126837 2.653719
Si 8.144542 5.429025 2.605156
Si 6.805309 9.453678 4.049967
Si 9.550798 6.740630 4.058340
Si 5.445178 5.471023 5.463188
Si 8.238872 8.122295 5.386561
Si 6.896844 6.813453 6.821980
Si 9.505684 9.536825 6.836003
Si 5.447654 8.092855 8.146744
Si 8.221000 5.417935 8.176768
Si 6.728250 9.500166 9.495385
Si 9.557574 6.725526 9.522052
64
Step 8700
Si 0.010484 10.788427 0.011159
Si 2.662044 2.664614 0.027646
Si 1.303739 1.277642 1.375003
Si 4.126532 4.014712 1.393778
Si 10.762652 2.705620 2.678799
Si 2.761281 0.003439 2.748418
Si 1.321020 4.023179 4.004831
Si 4.134798 1.444460 4.064595
Si 10.835217 0.073120 5.441964
Si 2.644926 2.631428 5.415301
Si 1.291192 1.424046 6.839890
Si 4.059741 4.039974 6.733477
Si 10.800454 2.738135 8.166960
Si 2.700753 0.038417 8.137988
Si 1.299504 4.082908 9.564313
Si 4.050643 1.398449 9.497896
Si 0.005078 5.481340 0.100042
Si 2.783815 8.130472 10.805825
Si 1.360557 6.865075 1.383269
Si 4.065433 9.479037 1.379846
Si 10.853676 8.214192 2.827361
Si 2.744823 5.465614 2.634431
Si 1.418380 9.628922 4.124887
Si 4.165566 6.773134 4.094515
Si 0.063591 5.458154 5.415850
Si 2.838749 8.176103 5.371679
Si 1.439869 6.810743 6.786594
Si 4.083997 9.450147 6.802345
Si 0.080855 8.072961 8.152803
Si 2.683646 5.319474 8.084141
Si 1.424904 9.497546 9.471604
Si 4.054957 6.738024 9.398136
Si 5.362197 0.052002 0.022437
Si 8.100403 2.769323 0.009633
Si 6.785929 1.333616 1.282691
Si 9.458029 4.088207 1.369725
Si 5.437486 2.722864 2.731647
Si 8.102209 10.815001 2.664525
Si 6.892163 4.055100 4.131185
Si 9.501658 1.321190 4.055086
Si 5.387752 10.824021 5.405113
Si 8.166134 2.606028 5.467889
Si 6.787424 1.303022 6.775080
Si 9.459693 4.093198 6.773877
Si 5.455440 2.689144 8.112633
Si 8.217017 10.852794 8.128327
Si 6.777132 4.094116 9.437307
Si 9.525434 1.388869 9.573311
Si 5.345745 5.454405 10.837238
Si 8.113097 8.180937 10.819874
Si 6.716509 6.766434 1.311396
Si 9.460853 9.406713 1.339144
Si 5.485363 8.133940 2.736463
Si 8.069658 5.452827 2.751969
Si 6.804814 9.510435 4.160811
Si 9.542891 6.768835 4.099914
Si 5.484340 5.441253 5.428453
Si 8.174061 8.158620 5.473768
Si 6.729506 6.908091 6.820894
Si 9.563671 9.462602 6.797257
Si 5.426017 8.189430 8.165445
Si 8.153677 5.469692 8.118863
Si 6.782496 9.562797 9.515471
Si 9.482219 6.799020 9.469224
64
Step 8750
Si 0.037266 0.045859 10.859805
Si 2.660501 2.670088 10.822934
Si 1.362120 1.405722 1.372616
Si 4.055832 4.006627 1.341401
Si 10.782009 2.769313 2.680868
Si 2.680680 0.013202 2.699226
Si 1.256243 4.132986 4.012193
Si 4.007112 1.411627 4.071995
Si 0.001882 10.799730 5.385315
Si 2.651453 2.835320 5.438483
Si 1.378449 1.385288 6.686041
Si 4.089671 3.970226 6.845398
Si 0.098056 2.749765 8.169360
Si 2.766703 0.026097 8.141647
Si 1.325824 4.106699 9.597467
Si 4.185099 1.435651 9.501891
Si 10.814073 5.542186 0.048778
Si 2.736145 8.171834 10.841478
Si 1.431460 6.836415 1.332744
Si 4.053124 9.511701 1.317403
Si 0.012404 8.207834 2.683359
Si 2.703630 5.355375 2.658365
Si 1.401461 9.433390 4.051533
Si 3.990138 6.682643 4.086437
Si 10.787132 5.363808 5.394168
Si 2.750081 8.054129 5.421936
Si 1.315775 6.627960 6.743752
Si 4.040934 9.511802 6.715930
Si 0.113429 8.121333 8.176609
Si 2.763859 5.378934 8.203044
Si 1.423756 9.557318 9.503464
Si 4.099858 6.713507 9.551828
Si 5.467850 0.030829 10.848956
Si 8.188705 2.782730 0.013327
Si 6.840036 1.393874 1.347790
Si 9.474730 4.220080 1.322556
Si 5.357632 2.646568 2.722055
Si 8.141480 10.791075 2.688809
Si 6.787536 3.969410 4.064682
Si 9.489992 1.282708 4.010745
Si 5.437371 0.024346 5.396663
Si 8.197498 2.708922 5.421716
Si 6.888695 1.271782 6.790823
Si 9.509277 4.060399 6.867905
Si 5.495032 2.702236 8.099657
Si 8.260581 0.027302 8.192031
Si 6.810920 4.059890 9.492878
Si 9.572144 1.452367 9.527769
Si 5.401528 5.377136 0.117252
Si 8.040955 8.121638 0.036981
Si 6.713614 6.750961 1.440683
Si 9.502406 9.472660 1.292552
Si 5.305004 8.153360 2.739873
Si 8.116509 5.481567 2.855133
Si 6.797930 9.542431 4.078669
Si 9.522017 6.871383 4.099179
Si 5.405810 5.346088 5.405643
Si 8.137751 8.165145 5.474295
Si 6.693830 6.766736 6.741516
Si 9.577211 9.463729 6.822847
Si 5.420969 8.203555 8.136009
Si 8.090484 5.459841 8.144967
Si 6.849211 9.555996 9.546730
Si 9.451026 6.868923 9.485839
64
Step 8800
Si 0.029602 0.034965 10.844253
Si 2.766858 2.712786 10.787070
Si 1.351049 1.458607 1.357053
Si 4.097836 4.091324 1.327393
Si 10.837724 2.727672 2.718775
Si 2.663534 10.852635 2.675591
Si 1.295317 4.123401 4.152785
Si 4.041798 1.263828 4.052318
Si 0.096377 10.779520 5.393874
Si 2.695124 2.719421 5.440740
Si 1.371871 1.293897 6.749342
Si 4.081085 4.055255 6.869386
Si 0.060359 2.706394 8.089020
Si 2.770674 10.840301 8.047945
Si 1.412567 4.126070 9.468275
Si 4.114749 1.278582 9.461198
Si 10.800900 5.413875 10.768196
Si 2.734536 8.198336 0.001247
Si 1.345867 6.778761 1.296476
Si 4.127579 9.591960 1.362869
Si 0.000364 8.108687 2.639092
Si 2.629642 5.393347 2.737590
Si 1.338806 9.362087 4.054202
Si 3.965064 6.755341 4.081869
Si 10.771913 5.486991 5.530960
Si 2.651077 8.083915 5.512074
Si 1.336172 6.741700 6.904987
Si 4.069978 9.509694 6.786236
Si 10.810888 8.195133 8.136471
Si 2.783327 5.558413 8.278218
Si 1.376252 9.571223 9.434314
Si 4.169913 6.859386 9.577080
Si 5.534192 10.817311 10.850869
Si 8.196410 2.737667 10.861129
Si 6.858142 1.378990 1.395966
Si 9.526277 4.191307 1.372798
Si 5.410371 2.621567 2.734966
Si 8.152157 0.003653 2.761954
Si 6.706261 4.038036 4.054634
Si 9.528728 1.341762 4.085820
Si 5.450790 0.023008 5.451716
Si 8.176920 2.729960 5.377901
Si 6.868749 1.326947 6.743736
Si 9.475971 4.064840 6.805385
Si 5.493902 2.728101 8.144896
Si 8.172642 10.813614 8.193759
Si 6.849194 4.072162 9.539453
Si 9.544320 1.343853 9.476177
Si 5.471466 5.447084 0.050676
Si 8.107995 8.095822 0.036252
Si 6.765012 6.835183 1.454092
Si 9.520382 9.588554 1.313979
Si 5.298922 8.127660 2.748305
Si 8.108018 5.463117 2.742228
Si 6.742232 9.504620 4.029121
Si 9.406784 6.853296 4.045707
Si 5.425538 5.388344 5.451177
Si 8.061790 8.187850 5.450468
Si 6.805163 6.708950 6.759108
Si 9.514440 9.529112 6.794117
Si 5.426761 8.108131 8.105217
Si 8.103333 5.473704 8.147449
Si 6.788678 9.423617 9.437342
Si 9.493548 6.804706 9.492703
64
Step 8850
Si 10.846986 10.861901 0.041927
Si 2.870217 2.730949 0.032483
Si 1.384508 1.378289 1.342674
Si 4.038785 4.145061 1.377582
Si 0.116112 2.731039 2.775276
Si 2.741597 0.040544 2.692134
Si 1.435941 4.046838 4.178646
Si 4.083786 1.329092 4.054090
Si 10.854215 0.001552 5.425244
Si 2.775518 2.673935 5.439200
Si 1.338860 1.357275 6.835594
Si 4.094331 4.061468 6.752738
Si 10.780490 2.709750 8.109494
Si 2.741878 10.833240 8.117189
Si 1.416992 3.931086 9.452909
Si 4.098252 1.316137 9.494679
Si 0.061519 5.288880 10.837580
Si 2.670564 8.183234 0.024339
Si 1.314147 6.760101 1.368227
Si 4.070960 9.533455 1.377129
Si 10.824799 8.040069 2.696892
Si 2.641394 5.454439 2.739741
Si 1.312045 9.482933 4.026563
Si 4.058557 6.788392 4.048407
Si 0.066975 5.534668 5.495437
Si 2.640165 8.165582 5.382623
Si 1.402527 6.931339 6.841339
Si 4.114662 9.437585 6.794581
Si 10.784764 8.204949 8.150879
Si 2.679482 5.445787 8.123589
Si 1.311383 9.499125 9.557453
Si 4.045229 6.856614 9.512525
Si 5.444670 0.012547 10.857550
Si 8.169854 2.638324 10.857682
Si 6.744473 1.353007 1.368638
Si 9.544947 3.969793 1.412021
Si 5.471650 2.717941 2.703037
Si 8.192125 0.035977 2.738562
Si 6.710638 4.097194 4.055315
Si 9.566106 1.434407 4.108537
Si 5.394710 0.027792 5.451443
Si 8.077062 2.707733 5.445654
Si 6.708069 1.453609 6.792149
Si 9.510804 4.115719 6.706237
Si 5.407491 2.748011 8.161450
Si 8.063348 0.049422 8.058416
Si 6.757843 4.013954 9.555287
Si 9.497090 1.334877 9.466639
Si 5.410891 5.425022 10.843345
Si 8.237447 8.201140 0.017000
Si 6.793938 6.863524 1.316380
Si 9.542630 9.551764 1.383068
Si 5.447884 8.140565 2.767352
Si 8.137548 5.390295 2.635822
Si 6.735135 9.522821 4.075091
Si 9.483852 6.733646 4.034547
Si 5.383755 5.422803 5.468854
Si 8.152851 8.153463 5.339276
Si 6.844037 6.763567 6.776652
Si 9.410367 9.531965 6.701082
Si 5.489794 8.090064 8.207624
Si 8.165707 5.380278 8.147730
Si 6.794462 9.484815 9.482920
Si 9.537071 6.738685 9.549471
64
Step 8900
Si 10.816081 0.030125 0.024426
Si 2.695576 2.766565 0.078769
Si 1.417927 1.290770 1.381228
Si 4.026777 4.098405 1.317565
Si 0.052263 2.698454 2.740081
Si 2.773875 10.858858 2.740038
Si 1.432359 4.057791 4.047114
Si 4.050496 1.435839 4.093317
Si 10.763138 0.038415 5.456990
Si 2.721771 2.693536 5.483613
Si 1.355414 1.292371 6.804457
Si 4.044956 4.190372 6.718512
Si 10.860551 2.717474 8.146877
Si 2.669886 10.778481 8.226312
Si 1.302807 4.033340 9.514101
Si 4.007383 1.351814 9.518484
Si 0.040978 5.376703 0.024282
Si 2.656087 8.094109 10.853503
Si 1.328901 6.755370 1.357291
Si 3.999701 9.387041 1.336836
Si 0.021008 8.178740 2.771413
Si 2.828941 5.495782 2.730890
Si 1.378676 9.627361 4.120399
Si 4.171822 6.908687 4.104045
Si 0.047063 5.382711 5.350816
Si 2.744026 8.245238 5.418698
Si 1.372309 6.840819 6.660016
Si 4.087728 9.479325 6.841622
Si 0.000945 8.123393 8.178718
Si 2.595902 5.374331 8.107552
Si 1.301105 9.428425 9.578797
Si 4.001355 6.732758 9.446177
Si 5.375175 10.817141 0.023591
Si 8.105911 2.683037 0.024461
Si 6.736908 1.345660 1.368344
Si 9.518140 3.924479 1.323726
Si 5.520377 2.818952 2.683482
Si 8.159710 0.056949 2.737804
Si 6.850665 4.152765 4.032940
Si 9.467824 1.387505 4.098305
Si 5.407482 10.808944 5.402130
Si 8.134165 2.808244 5.439585
Si 6.696199 1.423439 6.762912
Si 9.512540 4.105123 6.823505
Si 5.335883 2.769219 8.208104
Si 8.098737 0.035734 8.090452
Si 6.762628 4.140846 9.558668
Si 9.451048 1.344472 9.476397
Si 5.420274 5.453524 10.819221
Si 8.199700 8.127123 10.787382
Si 6.839372 6.725168 1.256883
Si 9.459488 9.446673 1.391984
Si 5.593989 8.182762 2.658832
Si 8.184336 5.367823 2.611844
Si 6.829051 9.507674 4.055467
Si 9.572032 6.675253 4.019754
Si 5.425995 5.498980 5.433671
Si 8.198734 8.066470 5.383791
Si 6.822844 6.835695 6.836361
Si 9.489276 9.470009 6.778963
Si 5.429505 8.156552 8.188881
Si 8.202492 5.422342 8.217943
Si 6.807205 9.532968 9.542787
Si 9.546400 6.729104 9.510882
64
Step 8950
Si 10.791716 0.007720 10.849502
Si 2.627660 2.706287 0.033724
Si 1.301607 1.268593 1.382376
Si 4.046200 4.018824 1.338994
Si 10.816226 2.638627 2.703259
Si 2.754214 10.828649 2.759382
Si 1.367610 4.099607 3.974573
Si 4.081660 1.364548 4.164182
Si 0.003048 10.850131 5.478804
Si 2.716095 2.696515 5.387702
Si 1.398418 1.352114 6.812079
Si 4.052870 4.147257 6.773347
Si 0.007633 2.637132 8.178856
Si 2.657202 10.853939 8.232976
Si 1.334621 4.163065 9.495898
Si 4.057075 1.399185 9.506761
Si 10.853184 5.530236 0.078450
Si 2.749764 8.077703 10.853312
Si 1.409291 6.797801 1.438642
Si 4.101543 9.468730 1.312355
Si 0.068217 8.298303 2.708009
Si 2.832637 5.480539 2.756324
Si 1.413528 9.541584 4.111635
Si 4.142356 6.843793 4.105640
Si 10.816091 5.335467 5.291296
Si 2.799030 8.140752 5.499814
Si 1.309668 6.647330 6.708885
Si 4.075100 9.658653 6.786726
Si 0.057290 8.096009 8.049373
Si 2.748396 5.434768 8.105149
Si 1.312157 9.488377 9.506291
Si 4.045688 6.711054 9.433363
Si 5.362170 0.004640 10.834908
Si 8.087641 2.723458 10.826064
Si 6.716008 1.346887 1.359011
Si 9.463549 4.036575 1.266696
Si 5.410786 2.740910 2.745590
Si 8.111110 10.835613 2.663839
Si 6.821778 4.060280 4.069117
Si 9.417195 1.361453 4.106966
Si 5.540468 0.062808 5.433318
Si 8.113953 2.767110 5.475376
Si 6.797635 1.355600 6.838510
Si 9.520793 4.046102 6.842512
Si 5.363679 2.645995 8.102303
Si 8.108172 10.822310 8.174602
Si 6.716135 4.078753 9.387393
Si 9.477271 1.288298 9.515459
Si 5.466887 5.441358 10.789558
Si 8.094978 8.134885 10.826656
Si 6.840546 6.757691 1.359308
Si 9.487979 9.461534 1.375621
Si 5.500548 8.184477 2.682392
Si 8.220748 5.455814 2.759419
Si 6.877183 9.462058 4.097994
Si 9.580355 6.858588 4.074992
Si 5.482003 5.490075 5.480326
Si 8.208760 8.118718 5.510365
Si 6.768201 6.864582 6.820171
Si 9.521219 9.485401 6.898202
Si 5.376462 8.187901 8.107329
Si 8.095923 5.436460 8.139686
Si 6.755984 9.546514 9.479408
Si 9.529976 6.799893 9.447222
64
Step 9000
Si 0.042451 10.789132 10.822919
Si 2.658636 2.735650 0.047411
Si 1.278324 1.404551 1.384966
Si 4.074559 4.023001 1.399871
Si 10.731683 2.688946 2.644388
Si 2.689628 10.859843 2.708719
Si 1.235094 4.024017 4.017757
Si 4.107093 1.345462 4.062412
Si 0.106011 0.030083 5.397993
Si 2.690005 2.652934 5.303585
Si 1.301828 1.497396 6.800853
Si 4.048681 3.998173 6.743898
Si 0.004467 2.780814 8.199621
Si 2.709261 0.066697 8.079727
Si 1.349092 4.090367 9.569494
Si 3.990084 1.434039 9.505476
Si 10.842215 5.472318 0.002049
Si 2.807363 8.205236 0.008790
Si 1.435008 6.842262 1.331092
Si 4.144272 9.584290 1.425786
Si 0.038742 8.163007 2.673788
Si 2.650470 5.348151 2.689356
Si 1.362620 9.454816 4.050414
Si 4.033835 6.702234 4.071824
Si 0.013364 5.438460 5.477376
Si 2.745100 8.096170 5.439353
Si 1.397346 6.764937 6.855256
Si 4.048524 9.503747 6.750119
Si 0.032039 8.082866 8.130777
Si 2.839536 5.384587 8.162650
Si 1.413002 9.501870 9.444135
Si 4.105632 6.793484 9.552266
Si 5.430400 0.083463 0.000531
Si 8.154013 2.800977 0.036580
Si 6.809003 1.419180 1.339644
Si 9.435387 4.203847 1.351696
Si 5.353632 2.726040 2.693732
Si 8.136583 0.033779 2.715510
Si 6.761835 4.025288 4.059924
Si 9.562557 1.294070 4.053297
Si 5.451664 10.840255 5.428034
Si 8.180284 2.638843 5.380247
Si 6.892488 1.316747 6.800851
Si 9.516919 4.047753 6.757311
Si 5.434176 2.676360 8.112945
Si 8.188945 10.799346 8.230743
Si 6.779010 4.025081 9.446969
Si 9.562264 1.413859 9.589000
Si 5.475567 5.415443 0.027112
Si 8.116972 8.107949 0.023199
Si 6.711019 6.799306 1.409680
Si 9.499629 9.500777 1.335153
Si 5.344529 8.087765 2.770108
Si 8.096205 5.466688 2.764826
Si 6.809666 9.495442 4.072880
Si 9.468096 6.816217 4.100867
Si 5.470820 5.410668 5.420657
Si 8.172697 8.225169 5.452560
Si 6.771904 6.777806 6.777907
Si 9.645767 9.530861 6.782823
Si 5.384131 8.169833 8.152204
Si 8.140876 5.416980 8.075411
Si 6.723922 9.459171 9.555804
Si 9.452964 6.799532 9.525665
64
Step 9050
Si 0.061854 10.852192 10.844239
Si 2.751063 2.694695 10.814400
Si 1.367046 1.392630 1.348245
Si 4.073966 4.110262 1.403710
Si 0.014856 2.790802 2.686381
Si 2.693157 0.016380 2.666024
Si 1.282105 4.082023 4.152647
Si 4.022635 1.368222 4.049080
Si 0.008676 10.797006 5.410776
Si 2.703447 2.787195 5.432605
Si 1.317718 1.390023 6.768521
Si 4.125805 3.968926 6.817575
Si 10.827098 2.825241 8.148363
Si 2.783632 0.026806 8.057210
Si 1.381104 4.060616 9.553223
Si 4.118563 1.340959 9.468357
Si 0.010479 5.439687 10.786985
Si 2.741218 8.241788 10.851502
Si 1.316780 6.853124 1.255547
Si 4.073238 9.549494 1.348928
Si 10.792498 8.007587 2.706083
Si 2.546842 5.414912 2.676677
Si 1.327458 9.406161 3.982186
Si 3.978037 6.678243 4.072091
Si 0.003265 5.541071 5.548593
Si 2.628912 8.111213 5.412265
Si 1.410391 6.817036 6.888245
Si 4.112793 9.361306 6.815648
Si 0.044884 8.170690 8.237628
Si 2.793290 5.373929 8.145061
Si 1.451307 9.545530 9.503335
Si 4.133799 6.828610 9.570624
Si 5.479478 0.034719 10.823249
Si 8.212199 2.754775 10.804480
Si 6.891384 1.377734 1.320762
Si 9.466899 4.194011 1.419323
Si 5.410369 2.712452 2.657928
Si 8.145888 10.799008 2.681765
Si 6.781906 4.070477 4.151744
Si 9.540095 1.296266 4.024619
Si 5.410538 10.797202 5.444793
Si 8.168325 2.616309 5.434508
Si 6.834850 1.240006 6.806328
Si 9.439621 4.114521 6.725092
Si 5.542405 2.719358 8.085712
Si 8.230613 0.021449 8.145601
Si 6.806788 4.090524 9.544518
Si 9.519282 1.374903 9.487418
Si 5.400969 5.391227 0.015415
Si 8.136654 8.161065 0.043783
Si 6.693090 6.816429 1.394504
Si 9.533902 9.502579 1.322751
Si 5.305924 8.109181 2.813775
Si 8.024803 5.494779 2.786057
Si 6.760679 9.538488 4.116181
Si 9.467509 6.771145 4.147306
Si 5.390766 5.341252 5.414852
Si 8.153257 8.198363 5.413165
Si 6.779443 6.747621 6.717988
Si 9.494379 9.511325 6.796254
Si 5.516405 8.140502 8.209414
Si 8.147518 5.460666 8.124262
Si 6.842266 9.542072 9.513377
Si 9.433767 6.799266 9.498321
64
Step 9100
Si 0.002309 0.137865 0.060200
Si 2.806805 2.652541 10.750564
Si 1.436001 1.386890 1.353379
Si 4.116941 4.074648 1.388495
Si 0.037339 2.751625 2.772253
Si 2.728803 0.020605 2.750183
Si 1.396821 4.136457 4.106584
Si 4.037174 1.393796 4.060919
Si 10.797438 10.807717 5.408993
Si 2.682348 2.754693 5.527636
Si 1.407770 1.184970 6.735306
Si 4.092080 4.081943 6.864241
Si 0.079111 2.623645 8.032318
Si 2.736485 10.854854 8.144044
Si 1.375960 4.045440 9.453961
Si 4.182378 1.253130 9.491985
Si 10.827212 5.364099 10.807243
Si 2.685871 8.097829 10.818023
Si 1.295205 6.706200 1.365838
Si 4.049322 9.505461 1.303270
Si 10.796465 8.149031 2.729484
Si 2.764213 5.507466 2.728488
Si 1.359541 9.543562 4.096474
Si 4.026166 6.902432 4.118348
Si 10.806924 5.390826 5.445222
Si 2.665300 8.213641 5.476280
Si 1.340769 6.781953 6.821997
Si 4.129473 9.557520 6.794513
Si 0.027484 8.206489 8.208304
Si 2.663004 5.478884 8.172720
Si 1.370731 9.606219 9.546958
Si 4.109409 6.779890 9.469810
Si 5.490673 10.822482 0.047491
Si 8.161949 2.671080 10.855830
Si 6.788964 1.360248 1.384567
Si 9.568702 4.032230 1.424069
Si 5.410485 2.639230 2.686685
Si 8.160367 10.831842 2.709538
Si 6.771017 4.039340 4.115964
Si 9.467055 1.371847 4.058661
Si 5.377240 10.859653 5.340544
Si 8.142004 2.737889 5.404587
Si 6.715071 1.339992 6.678539
Si 9.453474 4.028356 6.885761
Si 5.516733 2.721500 8.161167
Si 8.204128 0.051562 8.080727
Si 6.834815 4.148606 9.590393
Si 9.509278 1.402199 9.442975
Si 5.361494 5.439374 0.053322
Si 8.111436 8.113110 0.020232
Si 6.780814 6.822342 1.392752
Si 9.493762 9.533067 1.334792
Si 5.398573 8.179941 2.665815
Si 8.143053 5.348667 2.700732
Si 6.727888 9.512666 4.063040
Si 9.477378 6.778268 4.041403
Si 5.399289 5.401421 5.373773
Si 8.061489 8.102620 5.455090
Si 6.732600 6.788358 6.807217
Si 9.469055 9.460420 6.739711
Si 5.468628 8.137580 8.128233
Si 8.118441 5.477696 8.195728
Si 6.886776 9.517147 9.466651
Si 9.548401 6.822982 9.473977
64
Step 9150
Si 10.856568 0.026117 0.054127
Si 2.724704 2.728468 0.019408
Si 1.413264 1.392206 1.324204
Si 4.069856 4.137095 1.328036
Si 0.033358 2.699640 2.777012
Si 2.691199 10.838809 2.705872
Si 1.464353 4.118142 4.081940
Si 4.099716 1.346462 4.061241
Si 10.844868 0.031393 5.399703
Si 2.741041 2.727653 5.462793
Si 1.385706 1.392460 6.813320
Si 4.068846 4.143513 6.804299
Si 10.817766 2.621367 8.171686
Si 2.680039 10.849717 8.271245
Si 1.386987 4.003469 9.433956
Si 4.124631 1.419238 9.542172
Si 0.059430 5.373248 0.071178
Si 2.626518 8.062180 0.053634
Si 1.368544 6.754014 1.417941
Si 4.041276 9.438507 1.342333
Si 10.840899 8.159893 2.669245
Si 2.810070 5.450066 2.730909
Si 1.368386 9.522459 4.048693
Si 4.112487 6.889277 4.106041
Si 10.824313 5.394983 5.358145
Si 2.729969 8.184562 5.464409
Si 1.256860 6.787673 6.726776
Si 4.063539 9.585684 6.757948
Si 10.798957 8.164633 8.083465
Si 2.584364 5.473403 8.141493
Si 1.259497 9.461581 9.559890
Si 3.953280 6.788848 9.483137
Si 5.432052 10.762256 10.835503
Si 8.092227 2.674084 0.033248
Si 6.718803 1.336551 1.400019
Si 9.622033 3.927531 1.330942
Si 5.396666 2.704151 2.708233
Si 8.159809 0.043964 2.751764
Si 6.770346 4.142598 4.054532
Si 9.518142 1.434552 4.106353
Si 5.485517 0.083471 5.393915
Si 8.095099 2.831078 5.432922
Si 6.756211 1.521785 6.802486
Si 9.580693 4.081294 6.808612
Si 5.403709 2.758488 8.192605
Si 8.074921 10.827641 8.097599
Si 6.760206 4.048902 9.492814
Si 9.456175 1.281208 9.532262
Si 5.436497 5.468062 0.016194
Si 8.203173 8.129538 10.849895
Si 6.919289 6.775238 1.332906
Si 9.519752 9.502277 1.379512
Si 5.482704 8.155165 2.646246
Si 8.250272 5.345120 2.650902
Si 6.804460 9.455619 4.015291
Si 9.550048 6.761953 3.974267
Si 5.400303 5.489575 5.446429
Si 8.109504 8.012908 5.413052
Si 6.786114 6.829226 6.855467
Si 9.446190 9.474224 6.736548
Si 5.407016 8.151080 8.117193
Si 8.156597 5.367349 8.186236
Si 6.806848 9.471848 9.457048
Si 9.605211 6.768534 9.542752
64
Step 9200
Si 10.851786 10.726098 10.826298
Si 2.672296 2.776225 0.117857
Si 1.364107 1.277147 1.348966
Si 4.127970 4.158008 1.296950
Si 10.855338 2.659675 2.686317
Si 2.779426 10.799552 2.713804
Si 1.399896 3.973759 4.092028
Si 4.167068 1.322795 4.102196
Si 0.055073 0.054658 5.510814
Si 2.754600 2.617137 5.410853
Si 1.301047 1.482913 6.860944
Si 3.981719 4.115314 6.713406
Si 10.768700 2.731288 8.269390
Si 2.690730 10.861215 8.122423
Si 1.347589 4.032639 9.496396
Si 3.957956 1.403878 9.479671
Si 10.860331 5.453870 0.029870
Si 2.720941 8.219061 10.837184
Si 1.423483 6.815351 1.336539
Si 4.137048 9.450758 1.405480
Si 0.053275 8.161891 2.725691
Si 2.766187 5.389542 2.764676
Si 1.355400 9.532404 4.098386
Si 4.158013 6.794740 4.066473
Si 0.089337 5.452717 5.423014
Si 2.781527 8.221293 5.425429
Si 1.364057 6.903219 6.707848
Si 4.028607 9.533423 6.830728
Si 10.749308 8.123678 8.076126
Si 2.670644 5.442341 8.134318
Si 1.336475 9.427087 9.389424
Si 4.007523 6.804277 9.479850
Si 5.372049 10.861308 10.839666
Si 8.089868 2.660893 0.001729
Si 6.731233 1.323113 1.354462
Si 9.470273 4.005153 1.285452
Si 5.457142 2.746124 2.739535
Si 8.114078 0.082834 2.789746
Si 6.792488 4.170933 4.031129
Si 9.551385 1.390121 4.133943
Si 5.434626 0.001226 5.506935
Si 8.113818 2.771340 5.436207
Si 6.805619 1.384668 6.837194
Si 9.534550 4.105365 6.748450
Si 5.333738 2.736377 8.175047
Si 8.066783 10.781004 8.179051
Si 6.778965 4.056834 9.494922
Si 9.408628 1.255814 9.547748
Si 5.475875 5.491851 10.759365
Si 8.206518 8.146161 10.788257
Si 6.830617 6.742003 1.253403
Si 9.449932 9.516800 1.417562
Si 5.582101 8.097892 2.768134
Si 8.127111 5.432562 2.645147
Si 6.860353 9.516758 4.073510
Si 9.500211 6.757221 4.071860
Si 5.493816 5.473867 5.504351
Si 8.174823 8.162302 5.405712
Si 6.864155 6.851876 6.809401
Si 9.520536 9.554643 6.790184
Si 5.354763 8.129076 8.103791
Si 8.176908 5.369104 8.141854
Si 6.679775 9.467068 9.508405
Si 9.515681 6.685788 9.524498
64
Step 9250
Si 10.831623 10.837311 0.015391
Si 2.683021 2.713345 0.043360
Si 1.320160 1.273454 1.369771
Si 4.016388 4.019002 1.380028
Si 10.858833 2.656621 2.640126
Si 2.774637 0.039330 2.699753
Si 1.285170 4.040534 3.953565
Si 4.093747 1.378098 4.070694
Si 10.856579 0.002461 5.422799
Si 2.698015 2.723281 5.375301
Si 1.307324 1.365757 6.783353
Si 4.078569 4.048964 6.795397
Si 0.005658 2.829340 8.196910
Si 2.707534 0.051445 8.128705
Si 1.328751 4.149551 9.601845
Si 4.028145 1.371164 9.482148
Si 10.794720 5.566723 0.029359
Si 2.793857 8.176961 10.861987
Si 1.384680 6.820353 1.383975
Si 4.134547 9.546047 1.380767
Si 0.051336 8.150880 2.747846
Si 2.683629 5.452702 2.718379
Si 1.345920 9.517694 4.059473
Si 4.085006 6.684053 4.034418
Si 0.043479 5.388729 5.380616
Si 2.710195 8.110790 5.338920
Si 1.464571 6.730308 6.745866
Si 4.059634 9.497849 6.806254
Si 0.112709 8.084352 8.143074
Si 2.764795 5.336354 8.127682
Si 1.384668 9.546307 9.510786
Si 4.118481 6.781026 9.458201
Si 5.355172 0.088393 0.030017
Si 8.122288 2.703222 10.842897
Si 6.786868 1.347019 1.348651
Si 9.447008 4.124030 1.363318
Si 5.465448 2.785920 2.733232
Si 8.184823 10.804992 2.684143
Si 6.836539 4.011666 4.073365
Si 9.452988 1.358763 4.050817
Si 5.405882 0.018596 5.495414
Si 8.186401 2.636401 5.498547
Si 6.785515 1.256010 6.800396
Si 9.467483 4.066024 6.775321
Si 5.398220 2.646384 8.097036
Si 8.121897 0.052630 8.206722
Si 6.777774 4.039903 9.433581
Si 9.544942 1.364139 9.511824
Si 5.385685 5.392269 10.806440
Si 8.096186 8.186092 0.022256
Si 6.687579 6.750317 1.385415
Si 9.479157 9.452821 1.360168
Si 5.445867 8.155189 2.782092
Si 8.153175 5.466046 2.776718
Si 6.826115 9.543789 4.129620
Si 9.553568 6.821761 4.096237
Si 5.454687 5.374661 5.408037
Si 8.240411 8.245398 5.424206
Si 6.810780 6.770087 6.669257
Si 9.530352 9.541531 6.875450
Si 5.474699 8.141982 8.171747
Si 8.131426 5.488180 8.113161
Si 6.730857 9.533835 9.590869
Si 9.437702 6.801197 9.478296
64
Step 9300
Si 0.041302 0.054643 10.854130
Si 2.693948 2.733792 10.741167
Si 1.294407 1.419314 1.371902
Si 4.047541 3.952765 1.362762
Si 10.775121 2.788682 2.682931
Si 2.672632 0.089923 2.753524
Si 1.263303 4.083399 4.010216
Si 3.998894 1.397280 4.050177
Si 10.845579 10.838257 5.424153
Si 2.625566 2.782530 5.416671
Si 1.402932 1.341184 6.734813
Si 4.103298 4.005649 6.821306
Si 0.093304 2.730849 8.064884
Si 2.676032 10.853643 8.098920
Si 1.307399 4.178250 9.538753
Si 4.102591 1.328541 9.508171
Si 10.796597 5.466946 10.849790
Si 2.784683 8.094487 10.833567
Si 1.359057 6.826254 1.304004
Si 4.028161 9.527459 1.379276
Si 10.849751 8.176986 2.721694
Si 2.652232 5.466547 2.629584
Si 1.406902 9.485885 4.144230
Si 4.008476 6.773964 4.084339
Si 10.786453 5.417159 5.463248
Si 2.685235 8.039355 5.476950
Si 1.350607 6.655684 6.861119
Si 4.100589 9.430855 6.771025
Si 0.133194 8.156192 8.195970
Si 2.779075 5.401757 8.151785
Si 1.403536 9.486296 9.563131
Si 4.205348 6.800294 9.524904
Si 5.478797 0.032176 0.028047
Si 8.187139 2.851300 10.826599
Si 6.887879 1.441022 1.364054
Si 9.454434 4.190816 1.389100
Si 5.443190 2.710598 2.709613
Si 8.123006 10.784889 2.647136
Si 6.811534 3.941091 4.078381
Si 9.484508 1.240776 4.040484
Si 5.366949 10.815773 5.374708
Si 8.238779 2.635438 5.442274
Si 6.784197 1.233355 6.774533
Si 9.504247 4.094951 6.852478
Si 5.528420 2.709994 8.139693
Si 8.285050 0.009529 8.164011
Si 6.790097 4.115456 9.483088
Si 9.595883 1.520870 9.502412
Si 5.424442 5.354420 0.078199
Si 7.993216 8.107232 0.034515
Si 6.705916 6.749107 1.475367
Si 9.488419 9.447187 1.278777
Si 5.347507 8.158377 2.674499
Si 8.158094 5.475659 2.765288
Si 6.742320 9.428673 4.088071
Si 9.499667 6.816507 4.116877
Si 5.413941 5.394400 5.392785
Si 8.181305 8.204961 5.510633
Si 6.741234 6.736647 6.776960
Si 9.582955 9.464082 6.805694
Si 5.481853 8.190618 8.139886
Si 8.106430 5.554881 8.144238
Si 6.851355 9.485734 9.494943
Si 9.489370 6.902694 9.463558
64
Step 9350
Si 0.016448 0.024704 0.006456
Si 2.798257 2.630893 10.794691
Si 1.319439 1.466523 1.347813
Si 4.099642 4.052837 1.341293
Si 10.830365 2.790500 2.778478
Si 2.619418 0.017105 2.716229
Si 1.343975 4.140094 4.152514
Si 4.032421 1.261691 4.038667
Si 0.071881 10.855451 5.384146
Si 2.755922 2.778194 5.410267
Si 1.462086 1.390269 6.831131
Si 4.118230 4.055753 6.800284
Si 10.848875 2.652732 8.116747
Si 2.795684 10.849156 8.154631
Si 1.435738 4.025694 9.447391
Si 4.154030 1.368646 9.526405
Si 0.143510 5.352841 10.800534
Si 2.699397 8.185306 0.023519
Si 1.335163 6.807646 1.378144
Si 4.027757 9.569003 1.339122
Si 10.803494 8.200764 2.656464
Si 2.666802 5.375957 2.670492
Si 1.372351 9.422386 4.020145
Si 4.013910 6.765965 4.105948
Si 10.783038 5.486195 5.480412
Si 2.731865 8.130948 5.482079
Si 1.311833 6.813352 6.859545
Si 4.071757 9.495175 6.744028
Si 10.752978 8.191643 8.192006
Si 2.746892 5.461798 8.172869
Si 1.386224 9.543673 9.484005
Si 4.100273 6.798668 9.556003
Si 5.502307 10.814592 10.818151
Si 8.190265 2.720506 10.861746
Si 6.804748 1.295853 1.296927
Si 9.528567 4.131543 1.371598
Si 5.463024 2.654273 2.711140
Si 8.077581 0.010686 2.737632
Si 6.695406 4.013451 4.170888
Si 9.489937 1.284790 4.119432
Si 5.486352 10.843613 5.389427
Si 8.100303 2.703226 5.397861
Si 6.864630 1.377192 6.754345
Si 9.452749 4.031798 6.760856
Si 5.528029 2.663737 8.124924
Si 8.196557 0.004829 8.086716
Si 6.786500 4.100612 9.510767
Si 9.498450 1.282352 9.492837
Si 5.448660 5.439759 0.065164
Si 8.155470 8.182160 10.858893
Si 6.818165 6.820587 1.377328
Si 9.520033 9.588247 1.358849
Si 5.306509 8.151663 2.698942
Si 8.089305 5.433482 2.799257
Si 6.694295 9.512298 4.021817
Si 9.460344 6.858139 4.071268
Si 5.381789 5.415501 5.444230
Si 8.070612 8.133751 5.446603
Si 6.734101 6.753591 6.868667
Si 9.488893 9.471126 6.730144
Si 5.434060 8.188597 8.135509
Si 8.126990 5.422295 8.112331
Si 6.898883 9.529307 9.472950
Si 9.502705 6.788918 9.566341
64
Step 9400
Si 10.846287 0.012516 10.845772
Si 2.792122 2.659814 0.089440
Si 1.350014 1.392668 1.411891
Si 4.117509 4.189658 1.375040
Si 0.077637 2.738465 2.769925
Si 2.751651 10.846230 2.666159
Si 1.410173 4.096815 4.164042
Si 4.096023 1.354664 4.039909
Si 0.004620 0.015970 5.434727
Si 2.763167 2.635752 5.445722
Si 1.359839 1.338357 6.783313
Si 4.015082 4.111521 6.804538
Si 10.856708 2.694295 8.156304
Si 2.771876 0.025219 8.141068
Si 1.387323 3.992717 9.504600
Si 4.096796 1.394852 9.493478
Si 0.010664 5.314303 10.859986
Si 2.606680 8.167870 10.846549
Si 1.370006 6.683385 1.365786
Si 4.084513 9.476291 1.333522
Si 10.849751 8.064679 2.727176
Si 2.756641 5.342024 2.780533
Si 1.290426 9.562417 4.046047
Si 4.072301 6.817217 4.035189
Si 0.026323 5.503596 5.434079
Si 2.687321 8.225745 5.387237
Si 1.341303 6.905507 6.773735
Si 4.043810 9.530933 6.795576
Si 10.757665 8.109033 8.120396
Si 2.682172 5.486926 8.172732
Si 1.286645 9.547559 9.444238
Si 3.955987 6.789320 9.515854
Si 5.435908 10.766591 10.848858
Si 8.169647 2.641569 0.068029
Si 6.741840 1.336006 1.354278
Si 9.525797 4.010746 1.394563
Si 5.395662 2.697304 2.693316
Si 8.178077 0.085380 2.812361
Si 6.715913 4.197164 4.025011
Si 9.620957 1.425276 4.114189
Si 5.450262 0.023010 5.385132
Si 8.105705 2.817560 5.346245
Si 6.793398 1.431400 6.745729
Si 9.531170 4.069419 6.806322
Si 5.419652 2.810281 8.152069
Si 8.085134 10.820497 8.083617
Si 6.866130 4.025650 9.626831
Si 9.456485 1.323984 9.478358
Si 5.452639 5.514113 10.800134
Si 8.292507 8.102527 10.851373
Si 6.843260 6.811845 1.282794
Si 9.513263 9.588973 1.420785
Si 5.448055 8.112470 2.730934
Si 8.122346 5.400576 2.607817
Si 6.748045 9.543118 4.053951
Si 9.436257 6.731677 4.046923
Si 5.418281 5.469255 5.460865
Si 8.081310 8.108222 5.349907
Si 6.861670 6.790887 6.847354
Si 9.475458 9.478800 6.708093
Si 5.354453 8.064994 8.185334
Si 8.187511 5.353050 8.190657
Si 6.798376 9.432890 9.504933
Si 9.539671 6.710483 9.566668
64
Step 9450
Si 10.808344 10.850610 0.014623
Si 2.703644 2.760172 0.017346
Si 1.450054 1.248769 1.297455
Si 4.043067 4.081541 1.370624
Si 0.100134 2.599429 2.733775
Si 2.798149 10.814547 2.683845
Si 1.436808 4.053588 4.070020
Si 4.122770 1.471110 4.085639
Si 10.765254 0.002716 5.483210
Si 2.753811 2.684821 5.503543
Si 1.282505 1.312458 6.801457
Si 4.078700 4.149448 6.828461
Si 10.849415 2.729272 8.216412
Si 2.669492 10.832860 8.190428
Si 1.295849 4.035590 9.562744
Si 4.058324 1.371355 9.505563
Si 10.808528 5.435344 0.075952
Si 2.592431 8.077093 10.860840
Si 1.308108 6.776755 1.373955
Si 4.083123 9.394228 1.284633
Si 0.047032 8.126289 2.738947
Si 2.842227 5.516181 2.742380
Si 1.348450 9.556436 4.071781
Si 4.160025 6.883597 4.072404
Si 0.024351 5.383978 5.414413
Si 2.712185 8.224323 5.391966
Si 1.399527 6.778965 6.686730
Si 4.084555 9.527811 6.849737
Si 0.084567 8.153296 8.058986
Si 2.614101 5.420517 8.133038
Si 1.278399 9.477183 9.522137
Si 3.999371 6.825846 9.387415
Si 5.401832 10.818760 0.017037
Si 8.092737 2.616099 10.860733
Si 6.751637 1.324950 1.460731
Si 9.526468 3.941774 1.346100
Si 5.438536 2.783829 2.698662
Si 8.245041 10.850234 2.676663
Si 6.871876 4.178183 4.046049
Si 9.468858 1.467821 4.105000
Si 5.425021 0.046968 5.483391
Si 8.166952 2.815224 5.522407
Si 6.711823 1.441004 6.810122
Si 9.563603 4.115324 6.822320
Si 5.393473 2.748131 8.154879
Si 8.001714 10.859086 8.148689
Si 6.769835 4.025913 9.474112
Si 9.471799 1.333164 9.436722
Si 5.396991 5.423960 10.766741
Si 8.176685 8.161117 10.826285
Si 6.774471 6.797231 1.285159
Si 9.504093 9.421083 1.394209
Si 5.523524 8.170179 2.693596
Si 8.171153 5.431499 2.648817
Si 6.867179 9.533316 4.139215
Si 9.572418 6.730440 4.028841
Si 5.443586 5.469510 5.425570
Si 8.164399 8.086982 5.437645
Si 6.806720 6.785902 6.740046
Si 9.412438 9.528225 6.851626
Si 5.466937 8.129250 8.115350
Si 8.163484 5.429833 8.205834
Si 6.694779 9.485086 9.452129
Si 9.540509 6.801832 9.478857
64
Step 9500
Si 0.011232 10.835695 0.022487
Si 2.667432 2.760634 10.834025
Si 1.359714 1.287144 1.366848
Si 4.081063 4.027601 1.330349
Si 10.795471 2.678580 2.692565
Si 2.729725 0.001889 2.772297
Si 1.348648 3.975916 3.926193
Si 4.081153 1.388753 4.142683
Si 0.005439 10.849801 5.485731
Si 2.651456 2.753949 5.391780
Si 1.359944 1.392499 6.801526
Si 4.073116 4.036380 6.711019
Si 10.848227 2.683121 8.195763
Si 2.627547 10.856160 8.157378
Si 1.342870 4.109376 9.518886
Si 3.999437 1.267498 9.551754
Si 10.812655 5.492963 10.861196
Si 2.819850 8.089274 0.000499
Si 1.340317 6.826875 1.357958
Si 4.047314 9.524942 1.410280
Si 0.048719 8.280842 2.761024
Si 2.762235 5.448293 2.726443
Si 1.469334 9.587509 4.145508
Si 4.140828 6.849297 4.068402
Si 0.038176 5.313771 5.343998
Si 2.794601 8.152889 5.444561
Si 1.384704 6.717159 6.744657
Si 4.082518 9.589398 6.728754
Si 0.036704 8.144466 8.123454
Si 2.703043 5.389682 8.121797
Si 1.391009 9.416700 9.491207
Si 4.145605 6.750061 9.480026
Si 5.391544 0.095120 0.059567
Si 8.072309 2.801128 0.000738
Si 6.836044 1.351470 1.373770
Si 9.496143 4.043131 1.357781
Si 5.447815 2.710007 2.736637
Si 8.127851 10.798916 2.720750
Si 6.908919 4.009875 4.078607
Si 9.424921 1.338322 4.054105
Si 5.404059 10.861184 5.409987
Si 8.195940 2.653286 5.477974
Si 6.766471 1.341476 6.769490
Si 9.499225 4.131819 6.787881
Si 5.349335 2.657845 8.185763
Si 8.159173 0.052242 8.186081
Si 6.719363 4.145828 9.460465
Si 9.460680 1.335255 9.612035
Si 5.407246 5.421483 0.000176
Si 8.030482 8.124184 10.847200
Si 6.740446 6.727134 1.384278
Si 9.421697 9.443926 1.304252
Si 5.528583 8.208549 2.658581
Si 8.156360 5.385940 2.755869
Si 6.852299 9.472463 4.102650
Si 9.560286 6.802337 4.059481
Si 5.460241 5.428815 5.402399
Si 8.238311 8.177912 5.479293
Si 6.773944 6.801730 6.701263
Si 9.524013 9.533445 6.828070
Si 5.444722 8.233185 8.093614
Si 8.132379 5.481535 8.165388
Si 6.696885 9.553660 9.504900
Si 9.494099 6.843718 9.451905
64
Step 9550
Si 0.014919 10.808120 10.829538
Si 2.635842 2.710353 0.014055
Si 1.223339 1.382303 1.363611
Si 4.082926 4.043186 1.355175
Si 10.728178 2.779053 2.651359
Si 2.596572 0.045402 2.739402
Si 1.244010 4.147607 3.999886
Si 4.088118 1.278232 4.049805
Si 0.153844 10.853487 5.461471
Si 2.672309 2.761114 5.360187
Si 1.336542 1.495086 6.831319
Si 4.101998 4.029473 6.767070
Si 10.812863 2.761927 8.149026
Si 2.705865 0.042311 8.146056
Si 1.393385 4.151395 9.472208
Si 4.025494 1.382409 9.526201
Si 0.096069 5.510780 10.807271
Si 2.808981 8.173721 0.020548
Si 1.425690 6.835799 1.376988
Si 4.072978 9.563181 1.431688
Si 10.855373 8.121522 2.673130
Si 2.611519 5.395385 2.627614
Si 1.348561 9.459253 4.067565
Si 3.959731 6.576378 4.071881
Si 10.815982 5.494569 5.439771
Si 2.741419 8.038516 5.460912
Si 1.357322 6.730971 6.806790
Si 4.088629 9.481530 6.722670
Si 10.844670 8.072610 8.200521
Si 2.829020 5.408099 8.129056
Si 1.433495 9.438162 9.516418
Si 4.098165 6.801411 9.538961
Si 5.426712 0.088428 10.844339
Si 8.186800 2.806757 10.815314
Si 6.793226 1.432839 1.290409
Si 9.505062 4.251331 1.341280
Si 5.436623 2.684512 2.755105
Si 8.132235 0.010968 2.711336
Si 6.776731 3.981101 4.105397
Si 9.545303 1.228210 4.044586
Si 5.497367 10.817258 5.404026
Si 8.181803 2.610053 5.406323
Si 6.849978 1.311786 6.870262
Si 9.469380 4.041429 6.753873
Si 5.410489 2.673421 8.111141
Si 8.243100 0.018509 8.213641
Si 6.773518 4.056863 9.455641
Si 9.545768 1.411252 9.588900
Si 5.394730 5.427709 0.036482
Si 8.103714 8.146812 10.854685
Si 6.814796 6.787730 1.435585
Si 9.539930 9.501566 1.312826
Si 5.340988 8.085621 2.789458
Si 8.129286 5.429628 2.852929
Si 6.778919 9.440477 4.009359
Si 9.525905 6.866794 4.078960
Si 5.420192 5.430989 5.458007
Si 8.207860 8.169596 5.435595
Si 6.755553 6.811775 6.790839
Si 9.613756 9.524187 6.805405
Si 5.453695 8.185088 8.191053
Si 8.137186 5.408036 8.039355
Si 6.817369 9.528681 9.549059
Si 9.434086 6.779287 9.486673
64
Step 9600
Si 0.036342 0.018350 10.823564
Si 2.720532 2.671127 0.033074
Si 1.367535 1.423368 1.380608
Si 4.086473 4.039072 1.325451
Si 10.821463 2.702884 2.741775
Si 2.757308 10.857799 2.673168
Si 1.298249 4.089856 4.214126
Si 4.021965 1.303456 4.047056
Si 0.024647 10.856454 5.394865
Si 2.722843 2.694084 5.419769
Si 1.418606 1.319328 6.772852
Si 4.067005 4.032250 6.816389
Si 0.063605 2.790920 8.059907
Si 2.824590 10.861694 8.090122
Si 1.383863 4.090161 9.530412
Si 4.127196 1.419672 9.460982
Si 10.815452 5.400557 10.814481
Si 2.700838 8.268135 10.828984
Si 1.410694 6.752870 1.313056
Si 4.152006 9.494257 1.378117
Si 10.829675 8.103948 2.699640
Si 2.650020 5.374476 2.685263
Si 1.314483 9.467136 4.014146
Si 4.002291 6.746344 4.106611
Si 10.815428 5.522932 5.511298
Si 2.678931 8.127608 5.489784
Si 1.372670 6.850050 6.870272
Si 4.071773 9.420456 6.832349
Si 0.025477 8.163190 8.152898
Si 2.782529 5.491691 8.180169
Si 1.381047 9.641331 9.418933
Si 4.123348 6.849416 9.541029
Si 5.447631 10.826900 10.845447
Si 8.219672 2.744623 0.008582
Si 6.789621 1.402170 1.318266
Si 9.482036 4.146529 1.383603
Si 5.386259 2.665072 2.721668
Si 8.159746 0.060684 2.697863
Si 6.707361 4.048084 4.061328
Si 9.529311 1.276914 4.038842
Si 5.388431 10.841776 5.464685
Si 8.098133 2.650410 5.382914
Si 6.827409 1.265944 6.768803
Si 9.450572 4.006611 6.785823
Si 5.561271 2.700327 8.126571
Si 8.198436 10.761809 8.134194
Si 6.806551 4.029604 9.504195
Si 9.557694 1.418577 9.402311
Si 5.465993 5.423341 0.027176
Si 8.175730 8.097816 0.027132
Si 6.715151 6.837134 1.374439
Si 9.552533 9.553080 1.359099
Si 5.357693 8.112398 2.767618
Si 8.042132 5.496868 2.670867
Si 6.733395 9.533130 4.042799
Si 9.382640 6.814248 4.104336
Si 5.421754 5.420894 5.485970
Si 8.052262 8.212368 5.451530
Si 6.799444 6.814719 6.858913
Si 9.525910 9.480056 6.793394
Si 5.441340 8.157150 8.182703
Si 8.075499 5.395161 8.119207
Si 6.871223 9.493097 9.556952
Si 9.492147 6.775673 9.495616
64
Step 9650
Si 0.009521 0.106757 0.035509
Si 2.775815 2.687985 10.825613
Si 1.476637 1.400400 1.354516
Si 3.998427 4.137227 1.409315
Si 0.111166 2.707106 2.819064
Si 2.767178 10.794373 2.689142
Si 1.421304 4.069702 4.169859
Si 4.018053 1.402113 4.080720
Si 10.764871 10.819401 5.343004
Si 2.756217 2.764823 5.452139
Si 1.364264 1.271506 6.681645
Si 4.089991 4.129571 6.854279
Si 0.020606 2.710786 8.101513
Si 2.762310 0.015833 8.148720
Si 1.358563 4.009136 9.516345
Si 4.203248 1.316582 9.503878
Si 10.815447 5.346492 0.055092
Si 2.600116 8.079000 0.011530
Si 1.299178 6.742552 1.401208
Si 4.046970 9.501957 1.240348
Si 0.008858 8.127070 2.754321
Si 2.713797 5.521361 2.777015
Si 1.312160 9.449208 3.986519
Si 4.107796 6.913221 4.096189
Si 10.841742 5.391273 5.393037
Si 2.647980 8.192034 5.383433
Si 1.324180 6.795657 6.783576
Si 4.055972 9.497610 6.837881
Si 0.005372 8.252522 8.129520
Si 2.652834 5.424049 8.206494
Si 1.316789 9.583551 9.582451
Si 4.031609 6.784968 9.539400
Si 5.496201 10.786807 0.039514
Si 8.176433 2.624614 0.013498
Si 6.815420 1.310197 1.395499
Si 9.490700 3.943269 1.414223
Si 5.417075 2.743916 2.651399
Si 8.182126 10.828755 2.686285
Si 6.702248 4.134320 4.094979
Si 9.440498 1.419658 4.074357
Si 5.375540 0.027824 5.409745
Si 8.063707 2.848750 5.405302
Si 6.774096 1.338209 6.685722
Si 9.533232 4.078115 6.787111
Si 5.483173 2.738528 8.136556
Si 8.145571 0.029199 8.104596
Si 6.827078 4.060449 9.565238
Si 9.535904 1.336186 9.447216
Si 5.438937 5.423170 10.830547
Si 8.239445 8.140568 0.044400
Si 6.754953 6.789197 1.317515
Si 9.555156 9.512443 1.372293
Si 5.401651 8.192225 2.683255
Si 8.146499 5.417377 2.685254
Si 6.780384 9.574530 4.084636
Si 9.483700 6.732704 4.053169
Si 5.398552 5.411697 5.384372
Si 8.070264 8.113930 5.409284
Si 6.793680 6.714966 6.766080
Si 9.403493 9.486128 6.719815
Si 5.450776 8.104980 8.149513
Si 8.181021 5.451101 8.221307
Si 6.866906 9.539014 9.524690
Si 9.618476 6.785387 9.539355
64
Step 9700
Si 0.056640 10.841786 0.039111
Si 2.782453 2.741143 10.840017
Si 1.410111 1.373797 1.353812
Si 4.070426 4.131501 1.351128
Si 0.036633 2.700423 2.735793
Si 2.720901 0.053251 2.743823
Si 1.431357 4.047416 4.014827
Si 4.155805 1.400816 4.084419
Si 10.850813 0.029442 5.508641
Si 2.735940 2.681367 5.486567
Si 1.304273 1.340392 6.792046
Si 4.047253 4.124554 6.850921
Si 10.806299 2.603609 8.159109
Si 2.633145 10.859588 8.163653
Si 1.313875 3.965777 9.461644
Si 4.045238 1.289189 9.504237
Si 0.025949 5.389002 0.025240
Si 2.688243 8.045807 0.012951
Si 1.281440 6.735271 1.394207
Si 4.012831 9.499494 1.304775
Si 10.849530 8.159649 2.785278
Si 2.813594 5.511912 2.765399
Si 1.397100 9.545584 4.146926
Si 4.096444 6.909738 4.060979
Si 0.046004 5.394195 5.430573
Si 2.716554 8.230608 5.467439
Si 1.289845 6.802959 6.763390
Si 4.083886 9.582403 6.830310
Si 10.793057 8.152329 8.132355
Si 2.573050 5.424490 8.122742
Si 1.365277 9.376976 9.513300
Si 4.010218 6.751824 9.422491
Si 5.466272 10.830976 10.791161
Si 8.074943 2.686280 10.848352
Si 6.754161 1.337124 1.426261
Si 9.572067 3.947249 1.363134
Si 5.390255 2.767746 2.655489
Si 8.136147 10.826698 2.767800
Si 6.780291 4.149113 4.083324
Si 9.517737 1.424081 4.160869
Si 5.465703 10.853578 5.405333
Si 8.186357 2.817016 5.435369
Si 6.703140 1.488439 6.776119
Si 9.547826 4.130700 6.832425
Si 5.360626 2.768897 8.192863
Si 8.053737 0.081113 8.093157
Si 6.815112 4.147239 9.519396
Si 9.467494 1.308167 9.568110
Si 5.405336 5.471535 10.828681
Si 8.174450 8.161035 10.803692
Si 6.893864 6.755273 1.324833
Si 9.460208 9.494391 1.291566
Si 5.529973 8.128148 2.641410
Si 8.200475 5.343946 2.630079
Si 6.796821 9.487643 4.047548
Si 9.504678 6.707730 4.067340
Si 5.441938 5.497594 5.400382
Si 8.150428 8.061767 5.376252
Si 6.786504 6.774118 6.852252
Si 9.475539 9.497176 6.742567
Si 5.402400 8.103242 8.115706
Si 8.269737 5.475490 8.214016
Si 6.786844 9.432434 9.415478
Si 9.568617 6.793810 9.506934
64
Step 9750
Si 10.807943 10.732027 0.000453
Si 2.655409 2.732719 0.052341
Si 1.260386 1.223991 1.374595
Si 4.169642 4.075087 1.305973
Si 10.827017 2.665605 2.657016
Si 2.778101 10.860480 2.720598
Si 1.380684 4.050883 4.003847
Si 4.121018 1.349250 4.038142
Si 0.034790 0.017141 5.525427
Si 2.719688 2.668627 5.425291
Si 1.361779 1.444373 6.886202
Si 4.032158 4.024101 6.687655
Si 10.774185 2.685552 8.238201
Si 2.697850 10.813973 8.196543
Si 1.351837 4.102453 9.529059
Si 3.993549 1.431760 9.519868
Si 0.115740 5.476623 0.044295
Si 2.801952 8.226792 0.076053
Si 1.381605 6.853932 1.364400
Si 4.121058 9.488637 1.444784
Si 0.015317 8.161616 2.717985
Si 2.736461 5.397910 2.705917
Si 1.405224 9.586918 4.111309
Si 4.064290 6.714367 4.058033
Si 0.052159 5.444315 5.387394
Si 2.752342 8.172851 5.427780
Si 1.368585 6.815676 6.721625
Si 4.119512 9.557021 6.710385
Si 10.838976 8.122901 8.097143
Si 2.728577 5.393726 8.064778
Si 1.363527 9.445573 9.478478
Si 4.030100 6.789815 9.486720
Si 5.330182 0.042063 10.852063
Si 8.071267 2.694300 0.018724
Si 6.732918 1.337675 1.302791
Si 9.538654 4.061552 1.270996
Si 5.459475 2.679438 2.749965
Si 8.109772 0.047040 2.702916
Si 6.841175 4.094372 4.109398
Si 9.512154 1.346628 4.138342
Si 5.529962 0.044303 5.439384
Si 8.185150 2.607381 5.443510
Si 6.809776 1.449232 6.896874
Si 9.500996 4.043471 6.777324
Si 5.353312 2.747384 8.119348
Si 8.098371 0.003832 8.162769
Si 6.736209 4.046155 9.445897
Si 9.405348 1.239825 9.571422
Si 5.471009 5.510096 10.846210
Si 8.114736 8.225297 10.855738
Si 6.814911 6.806739 1.389067
Si 9.467850 9.510063 1.407053
Si 5.475246 8.110220 2.721034
Si 8.182539 5.400359 2.733077
Si 6.846959 9.472309 4.010818
Si 9.551878 6.827256 4.034574
Si 5.451275 5.471071 5.466325
Si 8.227065 8.141208 5.429757
Si 6.802675 6.849052 6.766989
Si 9.471276 9.532027 6.846331
Si 5.411799 8.196701 8.127313
Si 8.098434 5.376643 8.076617
Si 6.673503 9.527592 9.449647
Si 9.446521 6.754063 9.501437
64
Step 9800
Si 10.830020 10.822720 10.819096
Si 2.632821 2.749897 0.027648
Si 1.295491 1.339371 1.349636
Si 4.050463 4.005979 1.335021
Si 10.794941 2.694939 2.655696
Si 2.655675 10.851571 2.716689
Si 1.281537 4.068500 4.018068
Si 4.079025 1.370194 4.056180
Si 0.014688 10.817215 5.419489
Si 2.636072 2.714612 5.352609
Si 1.345311 1.360469 6.832581
Si 4.019876 4.043814 6.667518
Si 0.072499 2.849331 8.210741
Si 2.739658 0.001276 8.108497
Si 1.356892 4.224572 9.598783
Si 3.975167 1.442014 9.505487
Si 10.829881 5.526022 10.855178
Si 2.773224 8.206559 10.804617
Si 1.414857 6.815196 1.317795
Si 4.138589 9.472799 1.445732
Si 0.046379 8.163393 2.667973
Si 2.643770 5.315259 2.695634
Si 1.328770 9.510567 4.123595
Si 4.052262 6.659521 4.067824
Si 10.849282 5.389918 5.388213
Si 2.739127 8.074414 5.362885
Si 1.416184 6.731522 6.762201
Si 4.036259 9.487531 6.748964
Si 0.052316 8.042866 8.190902
Si 2.786310 5.467539 8.173615
Si 1.363987 9.582689 9.436442
Si 4.131158 6.816742 9.531254
Si 5.354883 0.071882 0.048835
Si 8.179531 2.803134 10.849939
Si 6.804104 1.428060 1.351849
Si 9.448318 4.208719 1.338360
Si 5.462293 2.749643 2.772896
Si 8.167015 0.016260 2.675504
Si 6.860207 4.039627 4.042077
Si 9.499150 1.304692 4.051006
Si 5.397567 10.851866 5.407187
Si 8.218883 2.636977 5.418910
Si 6.846738 1.237391 6.760905
Si 9.553413 4.043988 6.812151
Si 5.431931 2.681698 8.115065
Si 8.197629 10.762722 8.248568
Si 6.754944 4.092245 9.504116
Si 9.545428 1.449814 9.481518
Si 5.433754 5.411090 0.027667
Si 8.102964 8.056155 10.860093
Si 6.747795 6.775367 1.387224
Si 9.485676 9.420187 1.390944
Si 5.433569 8.127275 2.843945
Si 8.156642 5.465998 2.786726
Si 6.820243 9.550639 4.137725
Si 9.572047 6.834264 4.058975
Si 5.488930 5.335705 5.416903
Si 8.198156 8.228066 5.467495
Si 6.826873 6.803248 6.737654
Si 9.561315 9.499986 6.863612
Si 5.436101 8.208863 8.169317
Si 8.100745 5.431516 8.086437
Si 6.707699 9.489552 9.622911
Si 9.406829 6.810396 9.462925
64
Step 9850
Si 0.036712 0.128214 10.836276
Si 2.757178 2.650233 10.784759
Si 1.389293 1.438985 1.323397
Si 3.974474 4.068901 1.437672
Si 10.785147 2.722656 2.697652
Si 2.657651 0.004949 2.692686
Si 1.288402 4.058922 4.056708
Si 3.999630 1.347651 4.098454
Si 0.009910 10.810365 5.375107
Si 2.722636 2.769490 5.455664
Si 1.321316 1.375789 6.679511
Si 4.145650 4.040253 6.876249
Si 0.060102 2.747508 8.068242
Si 2.707115 0.064552 8.086683
Si 1.399713 4.115815 9.465953
Si 4.206873 1.283256 9.462799
Si 10.803083 5.458156 0.009412
Si 2.715758 8.120269 10.827513
Si 1.396907 6.835950 1.321121
Si 4.013233 9.561689 1.326194
Si 10.818493 8.184313 2.663562
Si 2.648738 5.488363 2.726150
Si 1.335603 9.419922 4.079616
Si 4.131768 6.792954 4.094646
Si 10.821062 5.431539 5.488258
Si 2.707548 8.023349 5.429373
Si 1.362658 6.711988 6.878158
Si 4.057365 9.418560 6.823187
Si 0.078032 8.188150 8.154234
Si 2.816317 5.442803 8.169499
Si 1.395505 9.544444 9.548189
Si 4.168725 6.841745 9.502331
Si 5.484551 0.023495 0.037149
Si 8.188063 2.763111 10.765666
Si 6.859735 1.401260 1.349343
Si 9.429168 4.149430 1.411434
Si 5.435122 2.727144 2.710423
Si 8.144766 10.801326 2.664924
Si 6.790808 3.997565 4.087693
Si 9.475807 1.328840 4.033991
Si 5.419764 10.840508 5.437185
Si 8.156210 2.677590 5.495057
Si 6.746015 1.250413 6.771450
Si 9.490286 4.105005 6.770478
Si 5.514806 2.625412 8.134174
Si 8.173742 0.042688 8.166269
Si 6.767345 4.046736 9.444697
Si 9.596327 1.437459 9.472405
Si 5.367779 5.322187 0.023372
Si 8.089391 8.066142 10.860008
Si 6.713396 6.759627 1.406028
Si 9.571741 9.484343 1.279199
Si 5.358362 8.174598 2.728353
Si 8.118411 5.502086 2.785149
Si 6.758340 9.503454 4.132391
Si 9.485976 6.828404 4.167599
Si 5.368012 5.338170 5.463027
Si 8.069573 8.162091 5.474275
Si 6.746289 6.719105 6.746998
Si 9.523205 9.508303 6.820281
Si 5.496170 8.160249 8.173210
Si 8.127431 5.483317 8.153628
Si 6.848563 9.560512 9.552097
Si 9.536112 6.839735 9.488793
64
Step 9900
Si 0.042234 0.038266 0.023600
Si 2.802167 2.716887 0.033777
Si 1.410880 1.431961 1.392333
Si 4.121983 4.097143 1.394015
Si 10.854205 2.782330 2.763873
Si 2.739525 0.033780 2.756705
Si 1.373852 4.088836 4.139014
Si 4.016466 1.320938 4.064860
Si 10.834399 10.849732 5.369380
Si 2.722620 2.701081 5.396625
Si 1.373968 1.306734 6.704075
Si 4.103408 4.037591 6.853520
Si 0.005125 2.705119 8.056769
Si 2.709304 10.857455 8.110094
Si 1.405277 3.922969 9.481291
Si 4.097401 1.259942 9.497728
Si 0.051338 5.338359 10.820551
Si 2.659028 8.142673 0.053568
Si 1.302098 6.763214 1.386809
Si 4.029122 9.562053 1.313935
Si 10.740843 8.157204 2.711870
Si 2.702951 5.508493 2.686699
Si 1.399394 9.469978 4.022467
Si 4.030256 6.882747 4.080768
Si 10.849834 5.506930 5.468916
Si 2.698457 8.229668 5.534346
Si 1.326579 6.851319 6.837740
Si 4.079876 9.482588 6.832948
Si 10.812453 8.285546 8.147393
Si 2.668153 5.370942 8.202777
Si 1.400376 9.499844 9.508699
Si 4.086353 6.739475 9.510952
Si 5.548029 10.797334 10.826645
Si 8.154620 2.675619 0.080667
Si 6.787083 1.348023 1.393311
Si 9.553576 4.061601 1.378118
Si 5.413191 2.665502 2.658267
Si 8.134316 10.830743 2.732637
Si 6.679334 4.013201 4.104040
Si 9.504396 1.333935 4.038528
Si 5.397961 10.816524 5.378175
Si 8.083878 2.750866 5.386755
Si 6.763765 1.350218 6.710954
Si 9.429069 4.114007 6.734452
Si 5.483574 2.706601 8.179092
Si 8.179028 0.060774 8.080245
Si 6.854100 4.122273 9.563041
Si 9.508295 1.336424 9.488933
Si 5.481216 5.468657 0.057435
Si 8.206293 8.190721 0.057415
Si 6.817518 6.803040 1.371999
Si 9.553540 9.560136 1.367787
Si 5.384591 8.105564 2.604465
Si 8.076384 5.413769 2.699587
Si 6.746988 9.444719 3.959983
Si 9.376126 6.779649 4.090319
Si 5.398215 5.489336 5.435059
Si 8.076879 8.121115 5.418808
Si 6.753484 6.796185 6.856429
Si 9.483665 9.493555 6.694395
Si 5.413211 8.146402 8.146308
Si 8.212764 5.467913 8.217206
Si 6.925414 9.476868 9.400178
Si 9.615432 6.762967 9.590671
64
Step 9950
Si 0.027816 10.859920 0.011603
Si 2.730170 2.700959 0.059225
Si 1.320774 1.331219 1.415496
Si 4.115748 4.126818 1.277033
Si 0.131973 2.772943 2.790771
Si 2.783473 10.807807 2.706329
Si 1.394183 4.177071 4.202959
Si 4.081177 1.343130 4.066401
Si 10.808254 0.084735 5.415080
Si 2.703280 2.753907 5.445747
Si 1.361874 1.345199 6.852533
Si 4.047663 4.092893 6.775429
Si 10.768363 2.652991 8.149559
Si 2.729599 0.006555 8.246415
Si 1.339653 4.002862 9.481426
Si 4.092544 1.496803 9.503659
Si 0.085141 5.398692 10.833636
Si 2.653312 8.154506 0.046140
Si 1.351997 6.712424 1.441029
Si 4.148245 9.394198 1.287603
Si 0.005144 8.086424 2.778579
Si 2.777763 5.406045 2.749255
Si 1.365296 9.531464 4.053000
Si 3.999226 6.758182 4.093680
Si 10.850748 5.483963 5.433121
Si 2.664178 8.237097 5.440326
Si 1.334742 6.850159 6.778931
Si 4.097184 9.537503 6.787564
Si 10.797125 8.131123 8.122533
Si 2.662710 5.412315 8.093813
Si 1.312539 9.512153 9.500567
Si 3.925708 6.701746 9.512475
Si 5.377672 10.817520 10.759349
Si 8.180052 2.653847 0.044099
Si 6.723424 1.268254 1.311238
Si 9.571055 3.977191 1.350137
Si 5.463352 2.750625 2.706435
Si 8.162516 0.047662 2.764243
Si 6.716357 4.202310 4.159651
Si 9.535825 1.428042 4.100191
Si 5.474931 10.859341 5.419369
Si 8.069275 2.810281 5.378609
Si 6.777555 1.477696 6.782210
Si 9.519217 4.052201 6.802138
Si 5.428485 2.849547 8.146990
Si 8.150832 10.856544 8.065251
Si 6.864966 4.035999 9.572334
Si 9.441815 1.303418 9.470875
Si 5.475855 5.488867 10.759080
Si 8.265017 8.217876 10.827450
Si 6.885695 6.820714 1.287478
Si 9.530971 9.513906 1.430577
Si 5.440357 8.095118 2.718831
Si 8.135598 5.343850 2.659188
Si 6.745677 9.509500 4.021551
Si 9.501128 6.681507 4.005154
Si 5.387428 5.510961 5.442808
Si 8.148431 8.079284 5.359267
Si 6.786622 6.784167 6.869054
Si 9.457009 9.493092 6.696187
Si 5.392644 8.073977 8.164141
Si 8.195642 5.395008 8.156899
Si 6.770773 9.477808 9.466799
Si 9.540079 6.706119 9.534504
