64
Step 0
Si 3.388718 0.541570 8.085321
Si 5.585966 2.132635 5.535298
Si 2.155584 9.890386 10.002802
Si 3.673549 6.011408 9.267944
Si 9.641589 1.731694 5.453042
Si 6.614021 6.997606 0.252524
Si 1.486447 5.189056 1.743351
Si 5.075027 2.879183 9.326379
Si 2.959385 5.726199 6.551721
Si 1.247896 7.213308 0.279210
Si 6.577574 7.927831 2.696930
Si 0.192172 5.249476 4.305416
Si 3.969360 10.846984 2.900704
Si 9.167005 3.934122 5.666568
Si 10.791860 1.746986 0.236341
Si 0.914888 0.801473 5.597091
Si 2.974952 8.111519 8.289623
Si 3.382912 5.428348 3.932177
Si 8.273377 7.076111 8.075959
Si 6.378418 5.948513 4.237719
Si 1.762358 7.166889 4.867039
Si 0.983582 8.220195 7.307113
Si 5.305808 7.036269 6.354835
Si 7.306141 0.879897 6.705112
Si 6.187351 0.702720 0.815292
Si 5.276059 9.417755 7.486335
Si 7.673006 3.726955 9.794399
Si 1.419801 2.762588 3.905853
Si 0.990182 9.549550 4.583769
Si 4.115640 3.815946 0.622997
Si 4.563315 3.443438 7.000072
Si 9.770849 7.700952 0.700189
Si 4.019500 10.786484 5.608138
Si 0.120644 4.527827 7.201534
Si 2.092285 3.099918 6.310177
Si 10.483413 6.823153 9.060793
Si 7.453647 8.580052 9.360324
Si 4.233100 5.939888 1.221616
Si 8.618550 6.718894 5.374669
Si 9.861108 8.179591 3.660181
Si 9.817517 2.319393 8.127292
Si 6.346359 5.438817 8.546075
Si 6.832904 4.590616 2.268887
Si 2.151154 2.625064 0.448879
Si 4.333329 8.133162 3.514091
Si 3.535231 0.509143 0.557063
Si 2.501326 3.683916 8.916021
Si 0.789720 9.861104 1.785520
Si 0.878955 1.141343 8.234646
Si 6.003615 0.264057 9.001458
Si 6.277941 10.666079 2.890629
Si 3.040782 8.582868 1.394901
Si 6.315789 9.696611 5.267698
Si 8.882048 1.908183 3.118010
Si 6.341638 2.536976 3.301403
Si 8.262479 2.143558 0.624973
Si 9.975015 4.163254 1.634328
Si 0.395922 1.330310 2.587324
Si 6.922442 4.367357 6.244848
Si 3.652136 3.211368 3.158412
Si 8.697924 10.298792 2.589831
Si 8.545156 5.409386 0.183650
Si 8.774372 10.262705 0.043618
Si 10.761236 9.976574 9.319875
64
Step 10
Si 3.271427 0.728161 8.269113
Si 5.694925 2.131255 5.656389
Si 2.163545 9.901911 9.932412
Si 3.700163 6.009878 9.158037
Si 9.588410 1.706687 5.610490
Si 6.704315 6.976606 0.253232
Si 1.493816 5.136722 1.688266
Si 5.091736 2.778461 9.233492
Si 3.029222 5.754011 6.447798
Si 1.240702 7.318594 0.349057
Si 6.663146 7.954749 2.615383
Si 0.058249 5.286684 4.320029
Si 4.054979 0.108024 2.938697
Si 9.053560 3.936267 5.678725
Si 10.768278 1.682355 0.252363
Si 0.868430 0.727232 5.657476
Si 2.958365 8.152751 8.324446
Si 3.300912 5.395857 3.988487
Si 8.160393 6.896879 7.938216
Si 6.367926 5.924614 4.237272
Si 1.837899 6.996712 4.911961
Si 1.099385 8.132498 7.274141
Si 5.226522 6.985315 6.331216
Si 7.446890 1.052946 6.681294
Si 6.329561 0.717764 0.924727
Si 5.245787 9.369296 7.563179
Si 7.963020 3.767885 9.711060
Si 1.502558 2.790646 3.863612
Si 1.074275 9.562715 4.643264
Si 4.126837 3.890938 0.691695
Si 4.361620 3.510221 6.915500
Si 9.628896 7.746912 0.741073
Si 3.892471 0.048821 5.478077
Si 0.094156 4.504081 7.233898
Si 2.086203 3.007450 6.389378
Si 10.481866 6.652844 8.848805
Si 7.434289 8.578324 9.365740
Si 4.234037 5.965595 1.328452
Si 8.525755 6.612508 5.286519
Si 9.908008 8.256308 3.621637
Si 9.534187 2.215755 8.082908
Si 6.275831 5.441338 8.573346
Si 6.769524 4.723802 2.217828
Si 2.053923 2.685871 0.320787
Si 4.343860 8.112715 3.539249
Si 3.691630 0.472325 0.718702
Si 2.434836 3.597417 8.944106
Si 0.652444 9.785705 1.846782
Si 0.925449 1.096474 8.314696
Si 6.104777 0.425833 9.087790
Si 6.414067 10.491598 2.857629
Si 2.965777 8.575548 1.350015
Si 6.307226 9.850012 5.251267
Si 8.915097 1.915146 3.192811
Si 6.339515 2.587305 3.415831
Si 8.364099 2.204481 0.652161
Si 9.882731 4.150243 1.756496
Si 0.448751 1.355429 2.609226
Si 6.975290 4.509415 6.266145
Si 3.605942 3.232784 2.897707
Si 8.739640 9.950046 2.442131
Si 8.578018 5.467795 0.095197
Si 8.705813 10.387457 10.854266
Si 0.099068 9.968035 9.356300
64
Step 20
Si 3.253772 0.914917 8.434234
Si 5.782503 2.104123 5.741341
Si 2.335404 9.833834 9.983070
Si 3.740517 5.967048 9.093173
Si 9.541041 1.643567 5.725296
Si 6.784824 6.924931 0.199617
Si 1.457371 5.077501 1.704018
Si 5.157868 2.689802 9.169646
Si 3.136641 5.788720 6.485728
Si 1.201503 7.384312 0.358356
Si 6.745515 7.953571 2.548731
Si 10.768193 5.275280 4.298896
Si 4.108745 0.226519 3.058509
Si 9.026705 3.949220 5.649505
Si 10.720400 1.607001 0.252435
Si 0.823834 0.690686 5.749960
Si 3.009011 8.202836 8.381346
Si 3.274789 5.358691 3.885889
Si 8.070303 6.730012 7.794520
Si 6.290911 5.906044 4.164210
Si 1.825103 6.962869 4.921799
Si 1.160121 8.056353 7.214246
Si 5.193460 7.009671 6.345659
Si 7.565805 1.187486 6.704678
Si 6.428764 0.772170 0.968687
Si 5.189072 9.273586 7.664603
Si 8.248652 3.764794 9.649140
Si 1.576181 2.901356 3.803412
Si 1.180157 9.500635 4.705864
Si 4.199781 3.988278 0.737811
Si 4.189344 3.569012 6.826479
Si 9.496855 7.803005 0.760050
Si 3.724214 0.196241 5.376765
Si 0.102409 4.497473 7.269004
Si 2.039049 2.887070 6.431033
Si 10.466837 6.480479 8.640926
Si 7.374399 8.645715 9.403402
Si 4.249735 6.021669 1.384556
Si 8.470867 6.608025 5.211195
Si 10.014751 8.256755 3.635168
Si 9.259375 2.166381 8.141412
Si 6.171853 5.458843 8.622921
Si 6.695451 4.858256 2.150329
Si 1.955830 2.706443 0.171111
Si 4.337832 8.087569 3.617837
Si 3.848012 0.472247 0.781180
Si 2.318883 3.533488 8.998934
Si 0.579154 9.722018 1.923089
Si 0.866889 1.139918 8.354282
Si 6.222618 0.540535 9.185921
Si 6.523214 10.339555 2.857679
Si 2.937199 8.557329 1.350546
Si 6.273235 9.974359 5.219015
Si 8.920346 1.933996 3.268291
Si 6.366899 2.623309 3.489860
Si 8.436325 2.313407 0.645763
Si 9.861588 4.128251 1.912652
Si 0.483926 1.393986 2.596239
Si 6.945665 4.575237 6.318529
Si 3.564757 3.156979 2.658529
Si 8.777326 9.634297 2.303294
Si 8.605615 5.493598 0.017818
Si 8.651106 10.505335 10.741272
Si 0.193520 9.933416 9.338531
64
Step 30
Si 3.326147 1.055255 8.565051
Si 5.808126 2.075392 5.797907
Si 2.622920 9.737055 10.075120
Si 3.761411 5.914560 9.095084
Si 9.559319 1.568576 5.724815
Si 6.787751 6.885617 0.110415
Si 1.341039 5.075736 1.704848
Si 5.224461 2.677902 9.116789
Si 3.271582 5.788581 6.596252
Si 1.123265 7.321729 0.364406
Si 6.743602 7.870457 2.476699
Si 10.647868 5.268684 4.238103
Si 4.125059 0.324485 3.201937
Si 9.068774 3.898828 5.615862
Si 10.708003 1.551209 0.216263
Si 0.776865 0.670331 5.811179
Si 3.081644 8.251784 8.504843
Si 3.342413 5.349273 3.726096
Si 8.034131 6.612685 7.682158
Si 6.145186 5.919199 4.093031
Si 1.740047 6.999691 4.887084
Si 1.166781 7.998196 7.158328
Si 5.250495 7.094690 6.296758
Si 7.582566 1.212808 6.793758
Si 6.484428 0.881622 0.971475
Si 5.157789 9.206862 7.761516
Si 8.470774 3.729558 9.558945
Si 1.607551 3.043843 3.773922
Si 1.295067 9.421781 4.796785
Si 4.322063 4.036212 0.632885
Si 4.109813 3.607862 6.749088
Si 9.456302 7.829657 0.680229
Si 3.551807 0.337470 5.348926
Si 0.134820 4.467723 7.330658
Si 1.965698 2.779561 6.368726
Si 10.432394 6.325011 8.435593
Si 7.272468 8.713333 9.427421
Si 4.218275 6.212474 1.389363
Si 8.460644 6.700092 5.146779
Si 10.194539 8.171297 3.744512
Si 9.084758 2.176401 8.309372
Si 6.021539 5.442192 8.709399
Si 6.683748 4.950224 2.068078
Si 1.854152 2.655370 0.090319
Si 4.334814 8.095204 3.737289
Si 3.924703 0.488379 0.792787
Si 2.216063 3.582146 9.062787
Si 0.585772 9.717354 1.998994
Si 0.648037 1.170590 8.394241
Si 6.358701 0.609391 9.236346
Si 6.583699 10.261279 2.930767
Si 2.979600 8.550205 1.414808
Si 6.175234 10.082710 5.228189
Si 8.875886 1.921205 3.363629
Si 6.411743 2.653249 3.511713
Si 8.497894 2.428599 0.620470
Si 9.870123 4.197813 2.068814
Si 0.526777 1.393654 2.572823
Si 6.820215 4.529617 6.354665
Si 3.580461 2.964447 2.488603
Si 8.817963 9.408954 2.167431
Si 8.661313 5.536631 0.005606
Si 8.610279 10.571693 10.572749
Si 0.224666 9.885617 9.328504
64
Step 40
Si 3.408889 1.186535 8.730992
Si 5.825892 2.024592 5.855699
Si 2.876286 9.651299 10.156947
Si 3.766927 5.863481 9.157685
Si 9.614286 1.473384 5.589054
Si 6.712634 6.859149 10.847360
Si 1.258389 5.045867 1.651472
Si 5.268602 2.724112 9.072603
Si 3.410988 5.787037 6.689334
Si 1.013983 7.264293 0.357149
Si 6.709753 7.749429 2.375696
Si 10.557551 5.260978 4.202098
Si 4.173180 0.390509 3.266419
Si 9.144216 3.857409 5.615135
Si 10.720633 1.503876 0.184134
Si 0.731961 0.646349 5.840711
Si 3.169289 8.292342 8.660650
Si 3.462714 5.376838 3.554306
Si 8.062706 6.577854 7.607399
Si 5.999634 5.926330 4.086769
Si 1.682144 6.991095 4.805771
Si 1.125810 7.960897 7.219886
Si 5.324116 7.160277 6.240911
Si 7.473474 1.153443 6.904410
Si 6.491558 1.026626 0.974077
Si 5.153552 9.162866 7.859056
Si 8.631865 3.819588 9.513072
Si 1.609898 3.197427 3.765985
Si 1.434104 9.420183 4.881487
Si 4.448683 4.083548 0.415126
Si 4.070944 3.580733 6.699873
Si 9.468535 7.851911 0.533872
Si 3.366690 0.511738 5.427203
Si 0.173701 4.382639 7.391640
Si 1.890683 2.668480 6.253318
Si 10.332726 6.166992 8.235728
Si 7.162271 8.749791 9.430655
Si 4.167504 6.451801 1.370885
Si 8.476941 6.815548 5.055209
Si 10.346946 8.035144 3.876676
Si 9.005362 2.124727 8.464063
Si 5.848340 5.384450 8.822873
Si 6.716632 4.913093 1.972551
Si 1.798986 2.615164 0.077689
Si 4.304373 8.132705 3.891627
Si 3.935101 0.493004 0.784946
Si 2.169381 3.694709 9.083268
Si 0.622639 9.726145 2.109162
Si 0.388787 1.185477 8.465352
Si 6.473100 0.674166 9.223684
Si 6.592631 10.249502 3.042547
Si 3.070213 8.567451 1.495252
Si 6.043367 10.203354 5.268463
Si 8.899424 1.923318 3.455393
Si 6.387816 2.693339 3.478266
Si 8.560829 2.563953 0.627315
Si 9.830837 4.276676 2.212542
Si 0.479512 1.360945 2.575911
Si 6.663712 4.478579 6.365697
Si 3.663015 2.723864 2.356886
Si 8.887062 9.235997 2.044579
Si 8.773620 5.577271 0.014127
Si 8.607048 10.561744 10.374307
Si 0.279579 9.847985 9.297038
64
Step 50
Si 3.455658 1.293581 8.910079
Si 5.780068 1.987854 5.866377
Si 3.058260 9.685528 10.290822
Si 3.712950 5.827474 9.245044
Si 9.605362 1.389044 5.433781
Si 6.590104 6.837715 10.666237
Si 1.244569 4.970831 1.576107
Si 5.272583 2.816663 9.055667
Si 3.530041 5.850817 6.705954
Si 0.860028 7.267398 0.360114
Si 6.672883 7.677869 2.295273
Si 10.475137 5.201458 4.177450
Si 4.257518 0.478020 3.336921
Si 9.239751 3.855820 5.677801
Si 10.721889 1.434603 0.218325
Si 0.682278 0.605828 5.863888
Si 3.256433 8.217393 8.709738
Si 3.542583 5.405697 3.421778
Si 8.048079 6.556687 7.558564
Si 5.900979 5.896048 4.114106
Si 1.709835 6.897984 4.742381
Si 1.063673 7.921359 7.356177
Si 5.415704 7.216266 6.218785
Si 7.394507 1.076491 7.027131
Si 6.473990 1.190145 0.990469
Si 5.202959 9.186157 7.934111
Si 8.751424 4.025695 9.479608
Si 1.573845 3.332852 3.725205
Si 1.592211 9.477324 4.956997
Si 4.549352 4.108546 0.177975
Si 3.983590 3.488250 6.677829
Si 9.518492 7.846753 0.266434
Si 3.289324 0.686179 5.571334
Si 0.207352 4.150039 7.456270
Si 1.802022 2.611006 6.183437
Si 10.210048 6.088465 8.077208
Si 7.075876 8.724068 9.435851
Si 4.173573 6.668980 1.310357
Si 8.439244 6.903323 4.956425
Si 10.430057 7.918703 3.995216
Si 9.002724 2.019197 8.535234
Si 5.786170 5.314396 8.941417
Si 6.781324 4.758482 1.865743
Si 1.807033 2.632169 0.112679
Si 4.275802 8.221041 4.063796
Si 3.961559 0.492798 0.706531
Si 2.168516 3.768256 9.051820
Si 0.673912 9.727268 2.217195
Si 0.214475 1.213206 8.521555
Si 6.498612 0.726814 9.190982
Si 6.600277 10.276978 3.116427
Si 3.132262 8.593542 1.584617
Si 5.823453 10.259979 5.385945
Si 8.962367 1.946300 3.481739
Si 6.335578 2.696019 3.372230
Si 8.632182 2.679307 0.705572
Si 9.746457 4.326505 2.327324
Si 0.383883 1.347444 2.621795
Si 6.575567 4.464599 6.363298
Si 3.750456 2.531050 2.218592
Si 8.945696 9.127253 1.988523
Si 8.919494 5.627296 0.026163
Si 8.622775 10.522493 10.183244
Si 0.357224 9.812702 9.254341
64
Step 60
Si 3.491058 1.419749 9.097873
Si 5.770024 1.978391 5.874807
Si 3.165672 9.709136 10.420193
Si 3.550488 5.884916 9.339789
Si 9.492058 1.352675 5.337903
Si 6.477130 6.797006 10.478440
Si 1.257637 4.898014 1.473758
Si 5.250041 2.836658 9.023451
Si 3.650292 5.951312 6.658729
Si 0.785458 7.286891 0.427433
Si 6.611971 7.613367 2.250628
Si 10.412801 5.101057 4.220621
Si 4.306987 0.572273 3.433319
Si 9.308416 3.875387 5.787577
Si 10.686094 1.336281 0.314097
Si 0.615639 0.519093 5.909510
Si 3.342536 8.093261 8.708246
Si 3.557522 5.406627 3.321686
Si 7.890655 6.521641 7.479089
Si 5.872017 5.805473 4.110891
Si 1.805841 6.750993 4.729436
Si 1.007947 7.889377 7.503432
Si 5.521729 7.288815 6.258355
Si 7.349569 1.000710 7.072569
Si 6.485993 1.338049 1.004156
Si 5.295332 9.208417 7.998796
Si 8.825664 4.219129 9.389285
Si 1.572357 3.468319 3.656909
Si 1.759205 9.512859 5.026340
Si 4.579994 4.078276 0.072749
Si 3.866183 3.424389 6.704815
Si 9.583168 7.840753 10.799981
Si 3.297592 0.810295 5.701865
Si 0.226062 3.869729 7.546772
Si 1.666189 2.631099 6.149348
Si 10.161282 6.033110 7.954914
Si 6.997448 8.692215 9.389667
Si 4.192028 6.854162 1.203477
Si 8.320475 6.963580 4.899647
Si 10.451233 7.880479 4.073218
Si 9.024958 1.934543 8.571355
Si 5.923290 5.324485 8.968627
Si 6.881202 4.592757 1.739515
Si 1.872293 2.675885 0.219001
Si 4.255749 8.386133 4.189766
Si 4.021847 0.509681 0.576007
Si 2.180470 3.818623 8.980961
Si 0.742872 9.716191 2.336783
Si 0.152181 1.227868 8.496402
Si 6.418818 0.745384 9.180712
Si 6.659620 10.302936 3.131791
Si 3.111500 8.620799 1.686605
Si 5.611104 10.250091 5.568677
Si 8.997527 1.952196 3.461934
Si 6.288156 2.674725 3.256034
Si 8.683441 2.736535 0.784874
Si 9.605544 4.373640 2.327898
Si 0.269047 1.343343 2.646490
Si 6.565354 4.478549 6.319430
Si 3.826496 2.439476 2.097366
Si 8.990026 9.067315 1.957237
Si 9.065287 5.783405 0.110498
Si 8.653956 10.436969 10.066389
Si 0.461502 9.754513 9.243869
64
Step 70
Si 3.425059 1.488562 9.240866
Si 5.853966 2.045366 5.870419
Si 3.135028 9.594948 10.499891
Si 3.359993 5.984027 9.451682
Si 9.388075 1.310556 5.377566
Si 6.390007 6.830328 10.435050
Si 1.267232 4.873648 1.347286
Si 5.282559 2.853289 8.963393
Si 3.735767 6.065153 6.583297
Si 0.897509 7.329627 0.548885
Si 6.562960 7.548338 2.260555
Si 10.424542 5.058530 4.260860
Si 4.333031 0.600879 3.522494
Si 9.360497 3.878490 5.920204
Si 10.615771 1.243960 0.380455
Si 0.434016 0.419202 5.942669
Si 3.402090 8.003907 8.691548
Si 3.560193 5.402123 3.211747
Si 7.725116 6.533579 7.389086
Si 5.875481 5.667950 4.062181
Si 1.941819 6.595542 4.779250
Si 0.975289 7.850665 7.598477
Si 5.621771 7.372955 6.307048
Si 7.332858 0.918365 7.003677
Si 6.527209 1.459015 1.009869
Si 5.364197 9.200219 8.045682
Si 8.856921 4.361158 9.284936
Si 1.542167 3.569352 3.595931
Si 1.908841 9.476692 5.098473
Si 4.580349 4.044630 0.127788
Si 3.768314 3.430364 6.776677
Si 9.643429 7.963494 10.415064
Si 3.347514 0.881941 5.834553
Si 0.274857 3.616697 7.629088
Si 1.473439 2.727663 6.066141
Si 10.136155 6.027951 7.830395
Si 6.955936 8.611397 9.314458
Si 4.210043 6.934176 1.054863
Si 8.141415 6.994708 4.856477
Si 10.431852 7.873393 4.103328
Si 8.958830 1.903598 8.675464
Si 6.137759 5.324105 8.869758
Si 6.927868 4.501355 1.599597
Si 1.920049 2.771577 0.352879
Si 4.241846 8.583246 4.268715
Si 4.149351 0.580943 0.445429
Si 2.173773 3.922977 8.882873
Si 0.834894 9.669415 2.481980
Si 0.208589 1.153344 8.438404
Si 6.360039 0.739893 9.211460
Si 6.702037 10.318888 3.106196
Si 3.001418 8.683384 1.793890
Si 5.442412 10.162066 5.796891
Si 8.973682 1.944193 3.385353
Si 6.277654 2.631887 3.196719
Si 8.756403 2.698879 0.768653
Si 9.502313 4.470172 2.305032
Si 0.187498 1.346994 2.707190
Si 6.583565 4.493556 6.216584
Si 3.863431 2.440674 2.011827
Si 8.999192 9.018461 1.956342
Si 9.128599 5.877813 0.235651
Si 8.717353 10.324401 10.023390
Si 0.610207 9.655351 9.299402
64
Step 80
Si 3.284418 1.512778 9.347438
Si 5.981711 2.191027 5.860942
Si 3.037923 9.429699 10.552604
Si 3.179581 6.026997 9.603515
Si 9.237133 1.283706 5.498521
Si 6.323703 6.903785 10.536821
Si 1.253042 4.889268 1.230705
Si 5.340976 2.892565 8.876960
Si 3.799838 6.117572 6.506484
Si 1.061145 7.417190 0.696195
Si 6.518793 7.516374 2.363405
Si 10.445218 5.115861 4.302248
Si 4.366825 0.574840 3.585574
Si 9.394525 3.860228 6.045849
Si 10.551922 1.152687 0.433520
Si 0.251616 0.299430 5.972708
Si 3.407846 7.996410 8.682755
Si 3.577189 5.399765 3.058992
Si 7.609275 6.583691 7.295348
Si 5.862681 5.540367 3.949093
Si 2.065367 6.491856 4.877515
Si 0.982923 7.814284 7.623536
Si 5.727605 7.432907 6.289006
Si 7.371676 0.860773 6.869095
Si 6.578578 1.528804 1.003834
Si 5.292760 9.165040 8.060098
Si 8.859057 4.484202 9.244718
Si 1.538656 3.625102 3.564773
Si 2.024273 9.388982 5.182801
Si 4.614204 4.079955 0.255477
Si 3.714429 3.531930 6.854659
Si 9.723298 8.098827 10.025666
Si 3.370305 0.889320 5.974530
Si 0.281229 3.453419 7.750688
Si 1.323673 2.817103 5.866992
Si 10.136756 6.121813 7.687293
Si 7.020907 8.525940 9.292196
Si 4.215260 6.942457 0.892299
Si 7.985821 6.997958 4.769933
Si 10.407331 7.846159 4.117796
Si 8.845788 1.844535 8.876107
Si 6.358727 5.270850 8.752938
Si 6.911556 4.494781 1.460003
Si 1.895676 2.875247 0.476843
Si 4.245607 8.734275 4.243601
Si 4.298094 0.641934 0.322961
Si 2.211825 4.080104 8.798938
Si 0.908843 9.608679 2.643831
Si 0.305419 0.986154 8.373408
Si 6.323975 0.716783 9.279511
Si 6.697982 10.315163 3.043807
Si 2.887173 8.733613 1.874192
Si 5.312330 10.078016 6.033749
Si 8.890749 1.931875 3.309728
Si 6.321346 2.578403 3.218415
Si 8.837520 2.611555 0.636736
Si 9.440976 4.604630 2.284829
Si 0.194060 1.314008 2.747277
Si 6.587890 4.467594 6.065275
Si 3.842461 2.492971 1.958660
Si 8.972189 8.967263 1.957719
Si 9.131936 5.927809 0.351025
Si 8.803552 10.242826 10.019353
Si 0.776889 9.539868 9.390499
64
Step 90
Si 3.063387 1.582211 9.436173
Si 6.083562 2.318762 5.834271
Si 2.956621 9.328075 10.531264
Si 2.995334 6.112051 9.766168
Si 9.084773 1.304109 5.635011
Si 6.323704 6.919936 10.648566
Si 1.210157 4.989528 1.163246
Si 5.375909 2.955242 8.780461
Si 3.837913 6.151282 6.459120
Si 1.191589 7.425638 0.790261
Si 6.506270 7.552580 2.499343
Si 10.458034 5.234344 4.374538
Si 4.433060 0.537677 3.616540
Si 9.400403 3.842529 6.177351
Si 10.565791 1.030574 0.474629
Si 0.126002 0.180461 6.005021
Si 3.370494 7.941626 8.663064
Si 3.596702 5.390897 2.871402
Si 7.583459 6.646333 7.214188
Si 5.815028 5.377020 3.806158
Si 2.157286 6.453701 4.986887
Si 1.030145 7.780528 7.593921
Si 5.763690 7.430350 6.227993
Si 7.406395 0.814192 6.730730
Si 6.638735 1.564942 1.046698
Si 5.184322 9.110569 8.183483
Si 8.860371 4.589884 9.258599
Si 1.552558 3.654821 3.517381
Si 2.077553 9.286094 5.292673
Si 4.682043 4.144489 0.375496
Si 3.693216 3.656425 6.937098
Si 9.829864 8.156793 9.669385
Si 3.355398 0.888841 6.082909
Si 0.212288 3.366405 7.920359
Si 1.240920 2.856390 5.588422
Si 10.149638 6.256430 7.554097
Si 7.132808 8.454047 9.261176
Si 4.219898 6.879272 0.769471
Si 7.958601 7.015287 4.602369
Si 10.384954 7.813950 4.110354
Si 8.752728 1.818886 9.070554
Si 6.569893 5.230402 8.736428
Si 6.807234 4.521882 1.341624
Si 1.847692 2.910230 0.535788
Si 4.265505 8.822640 4.149785
Si 4.415891 0.608643 0.258888
Si 2.301263 4.214507 8.753447
Si 0.877021 9.607262 2.850025
Si 0.398672 0.758955 8.320062
Si 6.298321 0.674810 9.336736
Si 6.652527 10.304246 2.940496
Si 2.818210 8.796596 1.993678
Si 5.221903 10.098012 6.243106
Si 8.789319 1.940116 3.260228
Si 6.390602 2.514403 3.274057
Si 8.916030 2.537403 0.462729
Si 9.419501 4.728012 2.271163
Si 0.249646 1.228664 2.760200
Si 6.577626 4.414474 5.875073
Si 3.775301 2.583507 1.949265
Si 8.915478 8.906525 1.963039
Si 9.115170 6.044491 0.388015
Si 8.895756 10.187659 10.048595
Si 0.941863 9.413393 9.482729
64
Step 100
Si 2.792472 1.680377 9.493388
Si 6.075963 2.346684 5.785623
Si 2.968226 9.386577 10.524430
Si 2.821799 6.185489 9.985083
Si 9.020071 1.421099 5.675218
Si 6.394652 6.910191 10.770224
Si 1.091048 5.154190 1.115378
Si 5.386814 3.033049 8.705663
Si 3.895680 6.141891 6.476116
Si 1.215118 7.336179 0.878648
Si 6.496506 7.603303 2.621871
Si 10.473789 5.368917 4.465801
Si 4.516462 0.553663 3.666132
Si 9.383158 3.829939 6.317507
Si 10.654777 0.865939 0.542590
Si 0.104961 0.057601 6.026071
Si 3.373271 7.815090 8.591458
Si 3.572794 5.374029 2.688291
Si 7.634036 6.712771 7.113072
Si 5.744728 5.199692 3.659463
Si 2.136494 6.461498 5.013828
Si 1.103449 7.753504 7.453241
Si 5.752469 7.364096 6.114994
Si 7.317141 0.714791 6.695782
Si 6.730869 1.570394 1.100121
Si 5.113808 9.060326 8.405253
Si 8.890356 4.695141 9.289567
Si 1.581434 3.714777 3.467876
Si 2.052955 9.184253 5.487908
Si 4.731927 4.196910 0.419904
Si 3.668845 3.769429 6.958861
Si 9.964094 8.123568 9.375917
Si 3.336918 0.962800 6.181603
Si 0.137784 3.292352 8.100265
Si 1.203837 2.830843 5.368597
Si 10.111824 6.358477 7.429778
Si 7.223056 8.386287 9.219301
Si 4.254904 6.772065 0.719473
Si 8.018060 7.027840 4.390122
Si 10.378147 7.784024 4.080373
Si 8.678796 1.785997 9.187446
Si 6.776962 5.172197 8.761300
Si 6.737524 4.599003 1.244288
Si 1.800008 2.894120 0.532410
Si 4.320910 8.857038 4.004262
Si 4.468578 0.539678 0.195028
Si 2.349572 4.279323 8.691379
Si 0.764091 9.652748 3.042419
Si 0.482179 0.521334 8.327723
Si 6.313732 0.601967 9.354320
Si 6.625379 10.264589 2.807514
Si 2.794681 8.870167 2.140664
Si 5.140778 10.247273 6.367579
Si 8.740915 1.983818 3.243997
Si 6.452165 2.443398 3.362543
Si 8.978022 2.511273 0.329471
Si 9.417642 4.781034 2.280895
Si 0.287084 1.143829 2.758188
Si 6.632145 4.438168 5.730065
Si 3.710872 2.644162 1.998576
Si 8.864133 8.832263 1.992129
Si 9.110718 6.226534 0.359182
Si 8.967802 10.204049 10.089450
Si 0.982640 9.366002 9.546371
64
Step 110
Si 2.520803 1.790950 9.510388
Si 5.904751 2.317337 5.758908
Si 3.081045 9.528957 10.578286
Si 2.645168 6.186472 10.137154
Si 9.047951 1.554119 5.657701
Si 6.547919 6.870081 0.030407
Si 0.909875 5.191607 1.130614
Si 5.353007 3.124135 8.676370
Si 3.909240 6.087109 6.551714
Si 1.155374 7.332029 0.954988
Si 6.418002 7.648526 2.718596
Si 10.496795 5.493526 4.579121
Si 4.596898 0.633617 3.762143
Si 9.359399 3.827109 6.448385
Si 10.736449 0.693051 0.573887
Si 0.133670 10.843345 6.019262
Si 3.357935 7.598015 8.438175
Si 3.492210 5.385530 2.587357
Si 7.710272 6.761859 7.044260
Si 5.699693 5.050226 3.505844
Si 2.051404 6.455265 4.972852
Si 1.253095 7.713983 7.238361
Si 5.730005 7.359695 5.941275
Si 7.181081 0.599654 6.747299
Si 6.790363 1.603211 1.149049
Si 5.138015 9.055517 8.597522
Si 8.984718 4.771760 9.312431
Si 1.614754 3.802415 3.402168
Si 2.011490 9.133893 5.687452
Si 4.721183 4.171513 0.331511
Si 3.653103 3.838612 6.925328
Si 10.053851 8.028375 9.161613
Si 3.290732 1.125379 6.246652
Si 0.068769 3.200010 8.269150
Si 1.207405 2.721751 5.259512
Si 10.026243 6.391072 7.299087
Si 7.282052 8.329788 9.155220
Si 4.304721 6.753190 0.759824
Si 8.055792 7.007276 4.193750
Si 10.425360 7.792250 4.041497
Si 8.635205 1.702057 9.186037
Si 6.963491 5.141163 8.756523
Si 6.845235 4.622912 1.202827
Si 1.746163 2.872179 0.493766
Si 4.380870 8.858563 3.888832
Si 4.479540 0.474184 0.126932
Si 2.371893 4.277855 8.640221
Si 0.647495 9.726108 3.246855
Si 0.535592 0.361309 8.408954
Si 6.378277 0.539370 9.337703
Si 6.616289 10.195797 2.672408
Si 2.763561 8.919433 2.289257
Si 5.053096 10.390164 6.439509
Si 8.770929 2.065544 3.195533
Si 6.493970 2.382544 3.426272
Si 9.027005 2.567695 0.306105
Si 9.380015 4.748394 2.268778
Si 0.344426 1.071083 2.841613
Si 6.758826 4.564755 5.631002
Si 3.691128 2.621696 2.074750
Si 8.843200 8.730471 1.996035
Si 9.118232 6.484353 0.331768
Si 9.012528 10.241945 10.124858
Si 0.944466 9.390226 9.618335
64
Step 120
Si 2.285355 1.884971 9.478539
Si 5.739624 2.327593 5.810892
Si 3.196694 9.639137 10.687687
Si 2.520975 6.155283 10.186237
Si 9.106529 1.685449 5.653092
Si 6.700744 6.863254 0.156683
Si 0.678962 5.090051 1.210890
Si 5.300149 3.189159 8.698608
Si 3.945587 6.029843 6.613017
Si 1.065904 7.504039 1.008912
Si 6.274019 7.653787 2.777016
Si 10.516815 5.562037 4.708819
Si 4.662340 0.639852 3.843774
Si 9.343693 3.789622 6.536478
Si 10.837807 0.533168 0.567117
Si 0.194328 10.855973 6.005833
Si 3.324509 7.362138 8.255535
Si 3.400699 5.423806 2.556273
Si 7.763381 6.826263 7.014828
Si 5.681101 4.955788 3.383611
Si 1.996048 6.424676 4.894559
Si 1.424204 7.653073 7.063801
Si 5.710797 7.415791 5.690095
Si 7.084614 0.532307 6.828739
Si 6.832931 1.636903 1.133889
Si 5.179113 9.062639 8.764664
Si 9.126095 4.808874 9.339805
Si 1.604237 3.848152 3.395946
Si 2.005774 9.185340 5.793648
Si 4.651574 4.071731 0.125697
Si 3.591426 3.842109 6.884506
Si 10.078508 7.913390 8.996777
Si 3.150147 1.308040 6.284347
Si 0.003033 3.067203 8.416901
Si 1.194199 2.566748 5.193508
Si 9.924927 6.402530 7.166555
Si 7.355819 8.265137 9.079249
Si 4.339074 6.841736 0.834778
Si 8.022440 6.918427 4.057711
Si 10.528235 7.831819 4.002543
Si 8.658027 1.604074 9.080972
Si 7.112882 5.126320 8.730136
Si 7.054403 4.556115 1.178486
Si 1.694259 2.852929 0.459148
Si 4.437338 8.868687 3.878411
Si 4.472560 0.450557 0.075037
Si 2.395078 4.242355 8.629913
Si 0.553695 9.759281 3.442377
Si 0.545239 0.263719 8.523558
Si 6.398395 0.504535 9.304524
Si 6.576711 10.159158 2.540266
Si 2.682647 8.975329 2.402194
Si 4.950246 10.438946 6.485611
Si 8.897096 2.167377 3.153351
Si 6.526250 2.345255 3.460767
Si 9.073272 2.667856 0.350483
Si 9.318039 4.696091 2.267302
Si 0.389431 1.101710 2.951995
Si 6.920306 4.744728 5.547333
Si 3.706958 2.539230 2.125208
Si 8.886363 8.646378 1.918686
Si 9.158923 6.800282 0.308383
Si 9.028077 10.228729 10.195060
Si 0.943425 9.414530 9.749230
64
Step 130
Si 2.119953 1.938406 9.461854
Si 5.587907 2.412145 5.932580
Si 3.267153 9.636275 10.850809
Si 2.447004 6.113507 10.154049
Si 9.194344 1.800509 5.662699
Si 6.831730 6.882402 0.259657
Si 0.461273 4.969288 1.311641
Si 5.318637 3.230334 8.738380
Si 4.057014 5.965924 6.570135
Si 0.953421 7.721071 1.077973
Si 6.132871 7.590631 2.786149
Si 10.489474 5.546862 4.833409
Si 4.698629 0.601553 3.910288
Si 9.359515 3.745967 6.548351
Si 0.094111 0.424503 0.584258
Si 0.281353 0.069760 5.997226
Si 3.272180 7.209435 8.126597
Si 3.353248 5.480796 2.542083
Si 7.765249 6.908123 6.947711
Si 5.653294 4.885883 3.265346
Si 2.022794 6.324356 4.780262
Si 1.527967 7.559352 7.011232
Si 5.636860 7.476105 5.472842
Si 7.041243 0.510415 6.872788
Si 6.868387 1.640603 1.102449
Si 5.180743 9.052064 8.927004
Si 9.333411 4.802186 9.397085
Si 1.550778 3.868490 3.415630
Si 2.085410 9.380922 5.815320
Si 4.544410 3.970525 10.765185
Si 3.526690 3.779255 6.805378
Si 10.120001 7.822471 8.871013
Si 2.971415 1.462225 6.303430
Si 10.750716 2.965130 8.542660
Si 1.098477 2.364183 5.184743
Si 9.856969 6.424730 7.030726
Si 7.403007 8.292741 9.033375
Si 4.327917 6.970418 0.884826
Si 8.028932 6.781997 3.915771
Si 10.575587 7.860613 3.905162
Si 8.731261 1.541765 8.927559
Si 7.164696 5.065556 8.736437
Si 7.195472 4.466174 1.153082
Si 1.680359 2.814021 0.467571
Si 4.437029 8.918566 3.934807
Si 4.424647 0.530915 0.053623
Si 2.385201 4.245456 8.679591
Si 0.500978 9.788264 3.602268
Si 0.514777 0.176385 8.605843
Si 6.392884 0.470399 9.294043
Si 6.570451 10.138898 2.394157
Si 2.594366 9.036489 2.450246
Si 4.832600 10.371590 6.562011
Si 9.054147 2.283010 3.148858
Si 6.547962 2.353453 3.461183
Si 9.162201 2.757188 0.367548
Si 9.247442 4.676164 2.304123
Si 0.421879 1.206131 3.053854
Si 7.117354 4.891051 5.484155
Si 3.758459 2.447861 2.105692
Si 8.967954 8.597656 1.826121
Si 9.242011 7.116655 0.281943
Si 9.000398 10.157226 10.304608
Si 0.987423 9.366983 9.924591
64
Step 140
Si 2.019302 1.917385 9.453464
Si 5.513264 2.549607 6.075757
Si 3.304579 9.547120 0.174316
Si 2.385996 6.063043 10.158156
Si 9.212197 1.840838 5.687363
Si 6.961170 6.842787 0.287865
Si 0.288330 4.871168 1.359103
Si 5.418635 3.214029 8.719762
Si 4.249130 5.900376 6.412379
Si 0.832716 7.886904 1.100444
Si 6.055114 7.520389 2.739683
Si 10.441823 5.453993 4.913078
Si 4.711800 0.580752 3.986129
Si 9.361449 3.741124 6.563545
Si 0.181387 0.379716 0.640346
Si 0.327065 0.137352 6.076483
Si 3.286892 7.116808 8.111009
Si 3.358190 5.514718 2.520290
Si 7.665949 6.996941 6.867258
Si 5.635074 4.766561 3.128824
Si 2.091085 6.259614 4.671724
Si 1.505943 7.520453 6.904401
Si 5.562584 7.512683 5.359980
Si 7.043288 0.528360 6.861792
Si 6.883626 1.604498 1.051029
Si 5.148279 8.998994 9.073403
Si 9.583594 4.854999 9.501647
Si 1.491427 3.868324 3.447508
Si 2.294473 9.575685 5.860286
Si 4.425170 3.956130 10.615121
Si 3.475393 3.713695 6.718934
Si 10.205568 7.729370 8.812245
Si 2.802793 1.559684 6.301654
Si 10.593859 2.919394 8.616385
Si 1.002709 2.212855 5.181159
Si 9.849262 6.445283 6.923753
Si 7.423401 8.354987 9.005664
Si 4.251246 7.104528 0.900336
Si 8.083150 6.656606 3.714819
Si 10.543684 7.779685 3.788346
Si 8.845151 1.474977 8.762341
Si 7.146543 5.022373 8.773109
Si 7.223033 4.422180 1.110386
Si 1.710137 2.792005 0.597928
Si 4.307305 9.023214 4.040434
Si 4.333009 0.718117 0.068244
Si 2.374261 4.282187 8.763033
Si 0.511783 9.935530 3.743191
Si 0.460338 0.103902 8.590723
Si 6.381654 0.477728 9.324798
Si 6.628780 10.124033 2.234986
Si 2.537200 9.088516 2.434973
Si 4.654870 10.236147 6.617765
Si 9.231842 2.386781 3.143187
Si 6.561686 2.396214 3.509464
Si 9.282552 2.771822 0.333893
Si 9.167353 4.751731 2.403218
Si 0.430627 1.292455 3.079321
Si 7.301852 4.954005 5.439286
Si 3.818109 2.366691 2.023259
Si 9.005689 8.604069 1.839701
Si 9.343640 7.305980 0.203282
Si 8.908911 10.086348 10.400472
Si 1.085108 9.245565 10.137557
64
Step 150
Si 1.980869 1.870593 9.478362
Si 5.571916 2.661427 6.200435
Si 3.399663 9.456952 0.324351
Si 2.353528 6.091529 10.244195
Si 9.090348 1.730526 5.648608
Si 7.049978 6.759029 0.251557
Si 0.185306 4.820276 1.322668
Si 5.592428 3.166341 8.658466
Si 4.440788 5.834095 6.221648
Si 0.777965 7.916535 1.129137
Si 6.028507 7.445943 2.648080
Si 10.401611 5.340687 4.949570
Si 4.745696 0.614890 4.051527
Si 9.316842 3.833187 6.651690
Si 0.197134 0.369686 0.709336
Si 0.266245 0.111682 6.281192
Si 3.339216 7.033304 8.147942
Si 3.403162 5.513569 2.472113
Si 7.555736 7.074781 6.817703
Si 5.585055 4.647333 2.981678
Si 2.145707 6.267917 4.607555
Si 1.469059 7.534495 6.732816
Si 5.518711 7.537007 5.311421
Si 7.019263 0.584499 6.812083
Si 6.918642 1.536222 1.008961
Si 5.058457 8.951927 9.220339
Si 9.825666 4.995314 9.629530
Si 1.480599 3.882835 3.407894
Si 2.534271 9.696282 5.946634
Si 4.286100 3.981864 10.571227
Si 3.446676 3.726763 6.679057
Si 10.306539 7.614820 8.809493
Si 2.713282 1.643793 6.331322
Si 10.482067 2.953744 8.668005
Si 0.971176 2.122667 5.172637
Si 9.847412 6.508394 6.855677
Si 7.428663 8.410692 8.993854
Si 4.096783 7.240781 0.883634
Si 8.103891 6.511904 3.503529
Si 10.510696 7.677508 3.694689
Si 8.938871 1.330932 8.609292
Si 7.126548 4.987494 8.842018
Si 7.160304 4.378330 1.019372
Si 1.765703 2.806417 0.760621
Si 4.115933 9.166382 4.101431
Si 4.239199 0.936378 0.062542
Si 2.362379 4.268206 8.811316
Si 0.539101 10.066191 3.861717
Si 0.386191 0.035268 8.551314
Si 6.357717 0.509965 9.389206
Si 6.667662 10.121260 2.076108
Si 2.527877 9.126525 2.403096
Si 4.518268 10.095989 6.703761
Si 9.332187 2.508478 3.133673
Si 6.586513 2.437649 3.577666
Si 9.380683 2.720070 0.284654
Si 9.063802 4.847755 2.564301
Si 0.433077 1.340761 2.961683
Si 7.399077 4.925683 5.390252
Si 3.919599 2.326638 1.984534
Si 8.960509 8.764805 1.972735
Si 9.485191 7.281823 0.046273
Si 8.794933 10.087231 10.446557
Si 1.215052 9.117984 10.275251
64
Step 160
Si 1.937774 1.774692 9.483129
Si 5.700820 2.770198 6.292621
Si 3.568742 9.453234 0.374300
Si 2.286596 6.187179 10.372389
Si 8.911533 1.584903 5.575837
Si 7.086437 6.681530 0.218464
Si 0.139344 4.826423 1.241407
Si 5.796885 3.126196 8.609148
Si 4.572172 5.776106 6.032225
Si 0.705328 7.799736 1.248094
Si 6.019226 7.396870 2.542344
Si 10.409074 5.209808 4.940740
Si 4.837403 0.722304 4.067430
Si 9.248167 3.880136 6.792723
Si 0.165000 0.388038 0.705258
Si 0.124983 0.014248 6.486558
Si 3.380188 6.914680 8.187732
Si 3.463948 5.479959 2.392027
Si 7.454010 7.135679 6.807719
Si 5.522764 4.520672 2.870790
Si 2.192814 6.337421 4.596380
Si 1.455077 7.581423 6.573547
Si 5.494824 7.559708 5.257409
Si 6.937046 0.640919 6.751118
Si 6.965387 1.473516 1.016581
Si 4.935357 8.922008 9.319471
Si 10.036154 5.100243 9.737643
Si 1.516675 3.922510 3.339115
Si 2.607777 9.734554 6.043365
Si 4.201259 3.999884 10.540549
Si 3.438378 3.771182 6.689101
Si 10.430065 7.525859 8.781110
Si 2.744263 1.772579 6.388006
Si 10.444402 3.075213 8.695326
Si 0.975278 2.119353 5.186087
Si 9.874435 6.636213 6.805169
Si 7.454486 8.428175 8.986194
Si 3.993850 7.288040 0.842604
Si 8.014149 6.483386 3.378827
Si 10.561022 7.592921 3.636506
Si 9.008532 1.127123 8.520432
Si 7.136129 4.965753 8.958837
Si 7.067779 4.286478 0.818960
Si 1.814050 2.831867 0.918152
Si 3.941918 9.274591 4.081490
Si 4.143047 1.147669 0.021924
Si 2.331588 4.240884 8.798049
Si 0.582743 10.097497 3.930412
Si 0.309889 10.841923 8.605635
Si 6.292124 0.571175 9.455215
Si 6.699186 10.125636 1.943757
Si 2.449065 9.184049 2.483780
Si 4.546963 9.998421 6.929147
Si 9.319462 2.636479 3.144672
Si 6.620873 2.482495 3.634523
Si 9.433152 2.580420 0.240921
Si 9.023572 4.803257 2.632512
Si 0.454140 1.337122 2.762120
Si 7.345391 4.844543 5.325156
Si 4.097662 2.307102 2.018492
Si 8.879700 9.027755 2.108854
Si 9.577275 7.179276 10.801011
Si 8.679050 10.159525 10.502828
Si 1.365648 9.063272 10.280067
64
Step 170
Si 1.860267 1.650071 9.478412
Si 5.846941 2.842023 6.321633
Si 3.740092 9.594505 0.369735
Si 2.201619 6.297675 10.512781
Si 8.753935 1.483417 5.467265
Si 7.107855 6.611338 0.211738
Si 0.103603 4.833401 1.148498
Si 5.980603 3.073388 8.599161
Si 4.652551 5.728327 5.845281
Si 0.583962 7.642022 1.390765
Si 5.977599 7.394717 2.429279
Si 10.466981 5.070014 4.933273
Si 4.972024 0.839080 4.095106
Si 9.133486 3.886388 6.937655
Si 0.111870 0.408646 0.597044
Si 0.015917 10.753937 6.535564
Si 3.413973 6.795440 8.170461
Si 3.496108 5.415749 2.316757
Si 7.370940 7.148489 6.833148
Si 5.489055 4.416448 2.767979
Si 2.261389 6.396471 4.608140
Si 1.481472 7.640276 6.429244
Si 5.492416 7.627543 5.184920
Si 6.809932 0.684816 6.700860
Si 7.028357 1.432112 1.047742
Si 4.823020 8.904027 9.353120
Si 10.235715 5.148194 9.836870
Si 1.598275 4.004807 3.310462
Si 2.541028 9.746726 6.131953
Si 4.196333 4.052587 10.545226
Si 3.428024 3.836079 6.752895
Si 10.608825 7.527827 8.724613
Si 2.825565 1.858022 6.442933
Si 10.450438 3.224349 8.707675
Si 0.956337 2.160738 5.214711
Si 9.879960 6.783229 6.697520
Si 7.485909 8.421673 8.982516
Si 3.958811 7.211682 0.828719
Si 7.833554 6.591240 3.306376
Si 10.632291 7.559939 3.600035
Si 9.027723 0.905541 8.475609
Si 7.217064 5.009004 9.063339
Si 6.962892 4.156085 0.591310
Si 1.877500 2.902553 1.029571
Si 3.851139 9.370542 4.072911
Si 4.050372 1.270831 10.813465
Si 2.290993 4.199426 8.715880
Si 0.630182 10.060985 3.991256
Si 0.256419 10.763490 8.805103
Si 6.194423 0.641191 9.506436
Si 6.705039 10.116194 1.863533
Si 2.295615 9.261085 2.544117
Si 4.681992 9.933553 7.227939
Si 9.263069 2.697733 3.161670
Si 6.704801 2.523165 3.701404
Si 9.456447 2.398728 0.243364
Si 9.037034 4.647528 2.590643
Si 0.433458 1.287947 2.591791
Si 7.233404 4.774433 5.283857
Si 4.291038 2.291566 2.092654
Si 8.792600 9.252039 2.247651
Si 9.564926 7.151533 10.807273
Si 8.592941 10.241735 10.564745
Si 1.503925 9.029711 10.230396
64
Step 180
Si 1.787076 1.571885 9.454654
Si 5.990284 2.886560 6.324267
Si 3.887076 9.776006 0.395635
Si 2.109236 6.399883 10.590187
Si 8.696909 1.408071 5.383044
Si 7.110701 6.618795 0.207244
Si 0.116168 4.774384 1.106060
Si 6.168186 3.049942 8.637498
Si 4.711569 5.768822 5.654260
Si 0.463280 7.486704 1.542664
Si 5.900408 7.386863 2.325090
Si 10.549686 4.928882 4.927087
Si 5.128898 0.929350 4.176389
Si 8.957173 3.936145 7.032696
Si 0.052613 0.430434 0.485629
Si 10.826895 10.638745 6.468042
Si 3.448629 6.698378 8.098761
Si 3.502965 5.338634 2.241563
Si 7.294170 7.123036 6.905772
Si 5.552812 4.379055 2.668121
Si 2.340120 6.403835 4.608443
Si 1.538857 7.685003 6.306841
Si 5.442188 7.712004 5.110673
Si 6.643182 0.703838 6.639322
Si 7.076399 1.438909 1.074307
Si 4.771516 8.845437 9.324894
Si 10.385342 5.120372 9.887814
Si 1.664803 4.106025 3.349843
Si 2.481984 9.788057 6.197222
Si 4.176212 4.109902 10.546542
Si 3.431603 3.949641 6.832593
Si 10.836170 7.611574 8.646908
Si 2.880651 1.820994 6.459245
Si 10.458098 3.341029 8.737801
Si 0.883327 2.184816 5.228180
Si 9.873070 6.907408 6.513733
Si 7.510380 8.406098 9.013046
Si 3.979353 7.137647 0.844693
Si 7.674258 6.714974 3.249880
Si 10.667510 7.523120 3.613869
Si 8.965924 0.726923 8.482853
Si 7.365699 5.026320 9.056852
Si 6.851451 3.948381 0.450188
Si 1.943459 3.017224 1.101276
Si 3.805305 9.484526 4.116164
Si 3.958248 1.348610 10.743501
Si 2.264682 4.130845 8.682111
Si 0.662533 10.029931 4.084958
Si 0.197516 10.675257 8.992803
Si 6.125866 0.717786 9.510874
Si 6.584894 10.116641 1.849534
Si 2.147768 9.331163 2.569229
Si 4.854090 9.871567 7.497334
Si 9.195464 2.595536 3.183404
Si 6.838957 2.534700 3.764878
Si 9.430337 2.204259 0.217346
Si 9.016567 4.637238 2.550245
Si 0.412475 1.230005 2.489730
Si 7.172779 4.756883 5.253517
Si 4.477099 2.274175 2.129388
Si 8.760617 9.354215 2.415281
Si 9.430430 7.245319 0.006703
Si 8.529176 10.289639 10.556399
Si 1.622937 8.995607 10.206908
64
Step 190
Si 1.737424 1.575191 9.398528
Si 6.092648 2.943071 6.397157
Si 4.016613 9.986080 0.485973
Si 2.030499 6.499428 10.588468
Si 8.755681 1.340289 5.422931
Si 7.110629 6.647322 0.200110
Si 0.122687 4.669410 1.168298
Si 6.322885 3.039817 8.707038
Si 4.712445 5.843607 5.488030
Si 0.362741 7.340734 1.655077
Si 5.735491 7.393232 2.174428
Si 10.637946 4.810520 4.901046
Si 5.248043 0.919023 4.299483
Si 8.764124 3.996676 7.088053
Si 0.009762 0.442534 0.458266
Si 10.784180 10.533741 6.360577
Si 3.489006 6.612854 7.996040
Si 3.521079 5.257329 2.182010
Si 7.245590 7.083237 7.023437
Si 5.692900 4.419363 2.594782
Si 2.371724 6.336264 4.593884
Si 1.568076 7.742187 6.239694
Si 5.393624 7.882531 5.102421
Si 6.472811 0.655794 6.630719
Si 7.073449 1.485723 1.105383
Si 4.726401 8.660488 9.359014
Si 10.441343 5.187598 9.894100
Si 1.674426 4.171345 3.440315
Si 2.485385 9.879710 6.254325
Si 4.142241 4.149600 10.488826
Si 3.431890 4.063552 6.912437
Si 0.212810 7.722249 8.591552
Si 2.894661 1.759040 6.419783
Si 10.465128 3.292424 8.717124
Si 0.795178 2.175022 5.217351
Si 9.866292 6.994361 6.287085
Si 7.489140 8.428103 9.025855
Si 4.054989 7.114171 0.844401
Si 7.667293 6.807802 3.235842
Si 10.622057 7.459187 3.714026
Si 8.868683 0.637657 8.450854
Si 7.586348 5.050073 8.943788
Si 6.764185 3.733613 0.382086
Si 1.973194 3.101283 1.128874
Si 3.819796 9.631168 4.197570
Si 3.898791 1.397359 10.668769
Si 2.272593 4.070266 8.720970
Si 0.652886 10.036835 4.206123
Si 0.155885 10.547941 9.064778
Si 6.138650 0.795642 9.466860
Si 6.407968 10.113309 1.857769
Si 2.037171 9.386125 2.526407
Si 5.040640 9.822482 7.600865
Si 9.167635 2.513000 3.116130
Si 7.017764 2.546412 3.773365
Si 9.359221 2.087138 0.146407
Si 8.985886 4.668124 2.536334
Si 0.433634 1.195949 2.478342
Si 7.141496 4.806941 5.226710
Si 4.605238 2.233613 2.102948
Si 8.734816 9.360647 2.589769
Si 9.277446 7.394621 0.091425
Si 8.383670 10.194057 10.550441
Si 1.757142 8.939145 10.230536
64
Step 200
Si 1.706003 1.657027 9.338683
Si 6.099645 2.998844 6.522469
Si 4.109788 10.176524 0.619692
Si 1.990869 6.547645 10.547315
Si 8.883594 1.268129 5.598202
Si 7.088225 6.621101 0.175325
Si 0.099261 4.550072 1.307809
Si 6.443784 3.052824 8.803790
Si 4.737869 6.006053 5.349728
Si 0.297313 7.213845 1.710090
Si 5.626105 7.454842 2.052281
Si 10.662698 4.711242 4.872597
Si 5.307367 0.847574 4.423144
Si 8.655636 4.060627 7.094038
Si 0.040741 0.432864 0.514335
Si 10.707240 10.484787 6.275021
Si 3.494953 6.534060 7.917272
Si 3.558205 5.195829 2.125103
Si 7.211607 7.017491 7.127942
Si 5.871408 4.537031 2.593875
Si 2.338411 6.284571 4.568956
Si 1.580026 7.787032 6.230572
Si 5.378891 8.022650 5.128853
Si 6.350065 0.564844 6.606208
Si 7.054354 1.496965 1.118344
Si 4.667402 8.412807 9.414223
Si 10.410048 5.310581 9.827837
Si 1.628195 4.186206 3.583997
Si 2.587839 10.017826 6.312183
Si 4.122859 4.176053 10.377578
Si 3.488083 4.095059 6.966436
Si 0.415135 7.786602 8.542343
Si 2.891694 1.688252 6.338015
Si 10.461727 3.157520 8.703600
Si 0.692233 2.130739 5.152424
Si 9.843011 7.040963 6.062855
Si 7.389579 8.421921 9.011754
Si 4.101925 7.129397 0.805723
Si 7.701235 6.910412 3.252103
Si 10.517972 7.427593 3.862776
Si 8.767664 0.653347 8.329286
Si 7.849402 5.168188 8.831240
Si 6.704129 3.572742 0.326777
Si 1.956564 3.063093 1.125460
Si 3.865769 9.788881 4.295662
Si 3.849340 1.415210 10.582099
Si 2.281949 4.063460 8.785979
Si 0.574784 10.066280 4.292592
Si 0.119423 10.397303 9.066119
Si 6.177995 0.896873 9.456437
Si 6.200773 10.077811 1.883228
Si 1.976524 9.425051 2.398664
Si 5.217045 9.734628 7.594567
Si 9.230446 2.446306 3.011711
Si 7.199784 2.554947 3.763501
Si 9.276782 2.095104 0.043413
Si 8.962984 4.724504 2.539949
Si 0.485430 1.172155 2.480541
Si 7.096400 4.923956 5.172776
Si 4.675597 2.157019 2.056004
Si 8.707946 9.268845 2.740046
Si 9.184392 7.570531 0.168952
Si 8.203808 10.012039 10.596583
Si 1.944102 8.919335 10.344910
64
Step 210
Si 1.703179 1.717148 9.269927
Si 6.002202 3.033435 6.635742
Si 4.137274 10.318373 0.782193
Si 1.923675 6.483509 10.456805
Si 9.012440 1.217293 5.826167
Si 7.034166 6.533984 0.159744
Si 0.036087 4.492280 1.407737
Si 6.534403 3.142938 8.908227
Si 4.763179 6.184531 5.284792
Si 0.237256 7.095129 1.728372
Si 5.697051 7.577791 2.052773
Si 10.599175 4.610823 4.846378
Si 5.344585 0.763764 4.512556
Si 8.694161 4.105728 7.009224
Si 0.051399 0.388758 0.544264
Si 10.596971 10.459335 6.288577
Si 3.500766 6.508597 7.876741
Si 3.580621 5.109360 2.092306
Si 7.175855 6.956289 7.189467
Si 6.082363 4.675528 2.594600
Si 2.291844 6.265988 4.548377
Si 1.611527 7.834025 6.247614
Si 5.384923 8.161357 5.130598
Si 6.283070 0.520372 6.523948
Si 7.054820 1.413869 1.133986
Si 4.588779 8.134941 9.455553
Si 10.383108 5.475200 9.760938
Si 1.612081 4.229151 3.732330
Si 2.767766 10.181675 6.388021
Si 4.097535 4.180688 10.273634
Si 3.549225 4.071626 7.037038
Si 0.560880 7.809490 8.471903
Si 2.879024 1.626079 6.277244
Si 10.402613 2.971083 8.704218
Si 0.591998 2.061275 5.081409
Si 9.782879 7.070862 5.921004
Si 7.249508 8.403192 8.943278
Si 4.026462 7.157758 0.679534
Si 7.733948 7.000600 3.296515
Si 10.406993 7.387065 3.987082
Si 8.720230 0.708718 8.213373
Si 8.105056 5.363503 8.756801
Si 6.634814 3.552247 0.262823
Si 1.960549 2.958521 1.087053
Si 3.953884 9.917848 4.376998
Si 3.806973 1.429229 10.474387
Si 2.319319 4.123329 8.824145
Si 0.442008 10.071707 4.290950
Si 0.066862 10.232798 9.004011
Si 6.186150 0.920430 9.470091
Si 6.017346 10.023517 1.945796
Si 1.967841 9.439995 2.207740
Si 5.332150 9.593862 7.578471
Si 9.378242 2.388030 2.906854
Si 7.319076 2.546084 3.820351
Si 9.243947 2.124951 10.773637
Si 8.947897 4.817866 2.578933
Si 0.551049 1.149164 2.514696
Si 7.060737 5.062249 5.086702
Si 4.688985 2.058804 2.016470
Si 8.704515 9.151153 2.786983
Si 9.178883 7.736755 0.295642
Si 8.036881 9.895822 10.723482
Si 2.132840 8.986539 10.526781
64
Step 220
Si 1.689833 1.678355 9.216717
Si 5.913967 3.091507 6.744812
Si 4.118616 10.446223 0.929790
Si 1.822523 6.331678 10.339383
Si 9.052424 1.279919 6.021877
Si 6.995959 6.404043 0.119676
Si 10.840910 4.432594 1.437048
Si 6.657759 3.265805 8.961510
Si 4.738829 6.266867 5.298332
Si 0.188215 7.015287 1.691571
Si 5.817191 7.715336 2.129553
Si 10.436301 4.487012 4.843744
Si 5.391101 0.731113 4.520586
Si 8.787467 4.083286 6.857032
Si 0.066385 0.353570 0.516753
Si 10.543260 10.344591 6.354988
Si 3.473603 6.585353 7.812355
Si 3.611178 4.989393 2.084579
Si 7.143262 6.854667 7.158061
Si 6.257104 4.771956 2.544710
Si 2.246074 6.276992 4.510765
Si 1.670999 7.910494 6.291594
Si 5.461510 8.353485 5.130606
Si 6.278902 0.510878 6.453865
Si 7.072126 1.287070 1.206521
Si 4.522177 7.861453 9.482364
Si 10.388478 5.631021 9.704356
Si 1.616425 4.276288 3.806945
Si 2.945624 10.313968 6.430046
Si 4.081909 4.179292 10.239155
Si 3.630185 3.995414 7.063282
Si 0.696034 7.798728 8.369145
Si 2.829207 1.612412 6.236299
Si 10.304834 2.823245 8.697982
Si 0.522223 2.005331 5.045360
Si 9.667199 7.086993 5.989259
Si 7.102464 8.410101 8.905897
Si 4.002783 7.135921 0.577486
Si 7.679615 7.095790 3.372670
Si 10.421465 7.328942 3.963725
Si 8.692570 0.750446 8.193115
Si 8.333015 5.587026 8.694549
Si 6.581701 3.646940 0.246484
Si 1.980567 2.832000 1.076886
Si 4.002121 9.988466 4.462851
Si 3.762422 1.447809 10.339847
Si 2.294953 4.196284 8.852222
Si 0.331728 10.013924 4.211085
Si 10.843337 10.109133 8.927590
Si 6.175624 0.873989 9.475947
Si 5.908826 9.958486 2.039769
Si 1.932894 9.466232 2.060728
Si 5.399293 9.454306 7.533358
Si 9.567996 2.320060 2.788629
Si 7.374588 2.510212 3.929377
Si 9.251518 2.170502 10.691203
Si 8.903905 4.935636 2.630013
Si 0.631298 1.116484 2.550300
Si 7.022928 5.195568 5.040222
Si 4.691239 2.003139 2.003397
Si 8.685941 9.086814 2.762417
Si 9.231321 7.901495 0.460924
Si 7.880723 9.838791 10.857549
Si 2.279404 9.157894 10.695128
64
Step 230
Si 1.623815 1.574258 9.177927
Si 5.869100 3.146870 6.831851
Si 4.083727 10.598435 1.066430
Si 1.762292 6.180295 10.223868
Si 9.044028 1.427220 6.126694
Si 6.970084 6.283590 0.053437
Si 10.795112 4.364570 1.403189
Si 6.775301 3.389790 9.008660
Si 4.656904 6.311254 5.351879
Si 0.182861 6.985578 1.627258
Si 5.915553 7.784130 2.204365
Si 10.221408 4.374160 4.882382
Si 5.470050 0.834175 4.396781
Si 8.892994 4.019086 6.668335
Si 0.133909 0.284484 0.356130
Si 10.554249 10.163395 6.430114
Si 3.414264 6.698842 7.725095
Si 3.692812 4.850738 2.042332
Si 7.121159 6.774019 7.072986
Si 6.322937 4.777642 2.423690
Si 2.199817 6.296429 4.488095
Si 1.691209 8.039061 6.286698
Si 5.616676 8.495047 5.163657
Si 6.349152 0.523550 6.543128
Si 7.127640 1.187763 1.325700
Si 4.504927 7.606713 9.430282
Si 10.390960 5.773477 9.681861
Si 1.639083 4.346628 3.844453
Si 3.086437 10.436725 6.472553
Si 4.103870 4.180778 10.280419
Si 3.729346 3.866669 7.038055
Si 0.800566 7.785115 8.276251
Si 2.765819 1.621660 6.211052
Si 10.200448 2.755304 8.655236
Si 0.481017 1.960129 5.060457
Si 9.576494 7.074248 6.195307
Si 6.960448 8.422002 8.886427
Si 3.984301 7.004295 0.591976
Si 7.579295 7.252350 3.487533
Si 10.557373 7.283017 3.895609
Si 8.641704 0.762273 8.304031
Si 8.526467 5.788303 8.635417
Si 6.515813 3.754857 0.258343
Si 2.019890 2.732056 1.100654
Si 3.940352 10.014582 4.490350
Si 3.747055 1.451462 10.166011
Si 2.197980 4.253670 8.849261
Si 0.212189 9.850039 4.116852
Si 10.803421 10.016782 8.901767
Si 6.146842 0.802752 9.457796
Si 5.855331 9.910441 2.181095
Si 1.850952 9.499446 2.031853
Si 5.458948 9.365321 7.451226
Si 9.683976 2.266315 2.687364
Si 7.397575 2.474188 4.062773
Si 9.240879 2.214977 10.661845
Si 8.861091 5.067908 2.690485
Si 0.767910 1.037824 2.570222
Si 6.984530 5.258768 5.056810
Si 4.710509 2.055129 2.010231
Si 8.691409 9.101305 2.726226
Si 9.292690 8.023459 0.612938
Si 7.738110 9.818019 0.099579
Si 2.312967 9.330641 10.710712
64
Step 240
Si 1.528747 1.497489 9.123777
Si 5.909809 3.135297 6.869361
Si 4.032272 10.759517 1.196328
Si 1.742131 6.078612 10.137784
Si 9.030955 1.588819 6.182355
Si 6.978395 6.277113 10.800009
Si 10.797758 4.271593 1.344862
Si 6.947967 3.504707 9.017799
Si 4.540792 6.335199 5.450990
Si 0.247699 6.968430 1.559867
Si 5.899307 7.647654 2.206294
Si 10.034845 4.316061 4.901996
Si 5.569657 0.998795 4.267062
Si 8.959049 3.932440 6.537379
Si 0.207234 0.218694 0.139726
Si 10.583525 9.947078 6.479820
Si 3.337184 6.747466 7.543723
Si 3.767919 4.701620 2.017774
Si 7.067780 6.726717 6.972932
Si 6.324046 4.721036 2.317079
Si 2.159261 6.309872 4.477187
Si 1.638809 8.205936 6.212468
Si 5.794429 8.565899 5.188753
Si 6.393783 0.611761 6.689302
Si 7.217748 1.169385 1.470323
Si 4.548537 7.407736 9.425111
Si 10.439508 5.875024 9.727678
Si 1.633657 4.403995 3.810940
Si 3.216208 10.474501 6.521219
Si 4.109981 4.159169 10.356121
Si 3.793010 3.741951 6.994284
Si 0.848042 7.808387 8.227295
Si 2.678218 1.724870 6.203750
Si 10.166472 2.801340 8.578670
Si 0.474979 1.905746 5.074179
Si 9.563845 7.057240 6.393838
Si 6.840542 8.405251 8.951167
Si 3.969300 6.833487 0.675387
Si 7.521196 7.428458 3.658032
Si 10.750295 7.204988 3.876197
Si 8.564604 0.681321 8.439017
Si 8.605213 5.903320 8.555058
Si 6.465763 3.818929 0.275263
Si 2.095857 2.702865 1.113331
Si 3.822198 10.049866 4.497027
Si 3.732719 1.459726 9.987699
Si 2.106505 4.271683 8.831936
Si 0.093439 9.651707 4.039640
Si 10.805997 9.943151 8.893405
Si 6.134724 0.747821 9.403292
Si 5.843979 9.985656 2.321594
Si 1.726960 9.501454 2.136437
Si 5.487204 9.340601 7.327742
Si 9.699256 2.235508 2.591000
Si 7.447042 2.466557 4.171335
Si 9.200169 2.274983 10.766478
Si 8.805349 5.195470 2.802948
Si 0.912401 0.949609 2.613659
Si 6.955671 5.267469 5.113195
Si 4.724716 2.185013 2.014914
Si 8.759367 9.168327 2.718672
Si 9.282881 8.123011 0.718827
Si 7.591498 9.789936 0.134601
Si 2.317626 9.400692 10.538098
64
Step 250
Si 1.448678 1.467701 9.032381
Si 5.963553 3.140123 6.883528
Si 3.906138 0.038883 1.279653
Si 1.771521 5.972434 10.104993
Si 9.008311 1.652632 6.194945
Si 7.039974 6.440594 10.664499
Si 0.010389 4.196735 1.309849
Si 7.170090 3.564151 8.967322
Si 4.421113 6.320351 5.558841
Si 0.314822 6.954386 1.478376
Si 5.844277 7.466748 2.192939
Si 9.968331 4.358444 4.735628
Si 5.671096 1.180032 4.159304
Si 8.892039 3.846786 6.601374
Si 0.267634 0.181029 10.808479
Si 10.545081 9.772637 6.455247
Si 3.310743 6.736316 7.386690
Si 3.774215 4.561445 2.070786
Si 6.983963 6.682361 6.903145
Si 6.345942 4.661337 2.323271
Si 2.101478 6.351882 4.480901
Si 1.603247 8.384904 6.048661
Si 5.926112 8.626635 5.150468
Si 6.369455 0.689639 6.830223
Si 7.348742 1.213250 1.590052
Si 4.599974 7.250023 9.413176
Si 10.493057 5.959707 9.835096
Si 1.567790 4.391876 3.690482
Si 3.367776 10.471431 6.542477
Si 4.089045 4.096587 10.405262
Si 3.868830 3.604065 6.938845
Si 0.875736 7.819154 8.267081
Si 2.540732 1.879755 6.257288
Si 10.200317 2.909620 8.537629
Si 0.544318 1.833080 5.045534
Si 9.671675 7.111754 6.522185
Si 6.727046 8.401413 9.061621
Si 3.960429 6.692625 0.779970
Si 7.516998 7.606539 3.795338
Si 0.056123 7.093098 3.891009
Si 8.542103 0.525755 8.607793
Si 8.572305 5.908749 8.481597
Si 6.450338 3.798102 0.245842
Si 2.121420 2.710122 1.115723
Si 3.718319 10.083881 4.512094
Si 3.723255 1.450827 9.820072
Si 2.047821 4.296745 8.789195
Si 10.802676 9.460641 3.999344
Si 10.765602 9.910410 8.883219
Si 6.145372 0.718438 9.356631
Si 5.875258 10.010694 2.471241
Si 1.632527 9.476060 2.241804
Si 5.458276 9.358357 7.238267
Si 9.665283 2.220835 2.540852
Si 7.507845 2.517410 4.233235
Si 9.143087 2.338515 0.028168
Si 8.769644 5.314872 2.943903
Si 1.050121 0.905728 2.672845
Si 6.896118 5.228380 5.165842
Si 4.749218 2.314117 2.052460
Si 8.841799 9.239967 2.772672
Si 9.238213 8.155263 0.809321
Si 7.430542 9.780816 0.100452
Si 2.350097 9.415160 10.306869
64
Step 260
Si 1.407650 1.513266 8.921039
Si 5.993214 3.123237 6.886910
Si 3.712913 0.159240 1.318119
Si 1.858489 5.901235 10.114151
Si 9.018985 1.608252 6.180252
Si 7.167393 6.605663 10.573617
Si 0.113325 4.173608 1.298541
Si 7.432616 3.531263 8.876332
Si 4.329573 6.285216 5.630791
Si 0.340825 6.984191 1.412868
Si 5.770799 7.280996 2.138211
Si 9.975265 4.377557 4.509971
Si 5.732673 1.323763 4.091794
Si 8.812400 3.791578 6.733407
Si 0.375538 0.202305 10.708785
Si 10.389018 9.732661 6.387510
Si 3.281501 6.686784 7.328395
Si 3.720748 4.463622 2.173891
Si 6.867673 6.688209 6.895605
Si 6.423611 4.671961 2.402250
Si 2.085348 6.367942 4.515011
Si 1.689543 8.570584 5.900377
Si 6.014795 8.668737 5.035075
Si 6.314136 0.796503 6.923290
Si 7.468740 1.310604 1.663994
Si 4.599372 7.094227 9.380129
Si 10.423661 6.037249 9.947706
Si 1.489025 4.361824 3.562178
Si 3.499458 10.503077 6.588365
Si 4.114416 3.989347 10.370940
Si 3.906813 3.542064 6.932691
Si 0.944548 7.803985 8.371190
Si 2.441676 1.984944 6.352390
Si 10.266953 3.013499 8.573468
Si 0.574585 1.761778 5.011311
Si 9.827981 7.216867 6.560929
Si 6.583803 8.466219 9.156605
Si 3.980599 6.570476 0.890237
Si 7.614900 7.759063 3.913768
Si 0.089382 6.943832 3.906107
Si 8.592957 0.377025 8.799042
Si 8.520472 5.863384 8.467876
Si 6.463891 3.748637 0.197782
Si 2.069687 2.668155 1.108165
Si 3.649931 10.116090 4.420345
Si 3.698675 1.412757 9.701973
Si 2.047539 4.256918 8.677591
Si 10.613933 9.278329 3.951248
Si 10.651871 9.850728 8.833841
Si 6.136472 0.707696 9.331429
Si 5.883475 9.994192 2.635400
Si 1.591628 9.469437 2.264567
Si 5.414776 9.391977 7.244429
Si 9.638198 2.263401 2.574539
Si 7.580230 2.600450 4.267220
Si 9.092334 2.366750 0.046944
Si 8.745205 5.433281 3.057983
Si 1.191031 0.901661 2.678498
Si 6.816124 5.130611 5.162895
Si 4.798813 2.386070 2.126466
Si 8.888535 9.304817 2.862787
Si 9.184294 8.117752 0.868861
Si 7.265429 9.777578 0.035871
Si 2.394585 9.436884 10.130039
64
Step 270
Si 1.397247 1.551385 8.822688
Si 6.030031 3.126574 6.867707
Si 3.517519 0.255098 1.332271
Si 1.993108 5.847322 10.130653
Si 9.050513 1.432215 6.179830
Si 7.334476 6.702666 10.538073
Si 0.184481 4.165108 1.274300
Si 7.625919 3.416996 8.858612
Si 4.271660 6.260444 5.595610
Si 0.363669 7.078885 1.393150
Si 5.730551 7.090331 2.092732
Si 10.001394 4.304543 4.321928
Si 5.726180 1.391052 4.047483
Si 8.810114 3.811773 6.830905
Si 0.531219 0.273201 10.692795
Si 10.159518 9.806722 6.330859
Si 3.199791 6.596825 7.428800
Si 3.637069 4.389565 2.287757
Si 6.827008 6.713994 6.934790
Si 6.540497 4.722306 2.499238
Si 2.171470 6.387006 4.585747
Si 1.853889 8.727202 5.784710
Si 5.989359 8.713606 4.961985
Si 6.303735 0.913755 6.958201
Si 7.481882 1.358533 1.700772
Si 4.515536 6.935984 9.366137
Si 10.270458 6.064946 10.048213
Si 1.464474 4.255658 3.435093
Si 3.637402 10.601342 6.632182
Si 4.170297 3.815176 10.294357
Si 3.829235 3.565307 7.001433
Si 1.063030 7.790397 8.492290
Si 2.385545 2.011251 6.488325
Si 10.351287 3.121050 8.670124
Si 0.518151 1.716984 4.963440
Si 9.943217 7.286615 6.556590
Si 6.408742 8.539131 9.187072
Si 3.992401 6.437352 0.983608
Si 7.756814 7.786021 4.014632
Si 10.853357 6.865769 3.912307
Si 8.715611 0.303967 8.969780
Si 8.492023 5.850170 8.461247
Si 6.507166 3.697060 0.114188
Si 1.997624 2.587834 1.040023
Si 3.598647 10.176797 4.225934
Si 3.680787 1.374982 9.627998
Si 2.092114 4.199687 8.508039
Si 10.565015 9.135295 3.951381
Si 10.510750 9.799687 8.743774
Si 6.086969 0.725275 9.367089
Si 5.880905 9.991655 2.764908
Si 1.571783 9.457816 2.201767
Si 5.397965 9.433615 7.259985
Si 9.681266 2.318874 2.674121
Si 7.663349 2.681791 4.258962
Si 9.105247 2.375408 10.801731
Si 8.713449 5.613196 3.106283
Si 1.284817 0.909245 2.646600
Si 6.702454 5.041376 5.156727
Si 4.872495 2.392887 2.227073
Si 8.775242 9.377951 2.860945
Si 9.100609 8.082922 0.937271
Si 7.110927 9.826136 0.009949
Si 2.446571 9.538291 10.032815
64
Step 280
Si 1.384430 1.596027 8.732954
Si 6.008106 3.184455 6.834444
Si 3.439909 0.343653 1.311984
Si 2.091535 5.790069 10.228621
Si 9.081407 1.168737 6.240051
Si 7.452054 6.786858 10.589696
Si 0.193724 4.218483 1.173900
Si 7.691668 3.274150 8.909402
Si 4.280405 6.250373 5.555063
Si 0.407302 7.180149 1.394373
Si 5.764650 6.904298 2.015089
Si 10.056921 4.153820 4.219814
Si 5.739598 1.441846 4.037162
Si 8.878967 3.885341 6.830172
Si 0.684372 0.368361 10.731777
Si 9.939558 9.943926 6.288046
Si 3.103186 6.519895 7.553633
Si 3.552043 4.320888 2.382061
Si 6.752997 6.813591 6.979780
Si 6.662161 4.794692 2.575862
Si 2.291377 6.424021 4.664705
Si 2.015702 8.815671 5.698767
Si 5.883291 8.695278 4.991987
Si 6.359435 1.008952 6.934659
Si 7.456614 1.294086 1.680045
Si 4.492793 6.793034 9.341951
Si 10.091755 6.034007 10.127059
Si 1.502077 4.157004 3.359214
Si 3.756530 10.754548 6.705991
Si 4.231388 3.647936 10.248463
Si 3.724882 3.652276 7.061731
Si 1.178426 7.799713 8.594358
Si 2.318252 1.949588 6.569819
Si 10.524305 3.206491 8.791920
Si 0.449209 1.693265 4.942751
Si 10.041397 7.312087 6.562907
Si 6.205658 8.580208 9.143437
Si 3.993067 6.255279 1.086480
Si 7.852134 7.694624 4.111425
Si 10.763318 6.830219 3.932385
Si 8.806021 0.309161 9.109707
Si 8.494499 5.884957 8.417309
Si 6.540300 3.661988 0.065939
Si 1.939981 2.504390 0.914844
Si 3.551446 10.237298 3.970987
Si 3.691938 1.274343 9.584827
Si 2.145635 4.210995 8.353569
Si 10.655382 9.091702 3.999692
Si 10.383365 9.731330 8.607700
Si 6.035087 0.786258 9.398035
Si 5.906542 10.004756 2.829564
Si 1.524926 9.404574 2.101018
Si 5.391022 9.433551 7.237417
Si 9.766027 2.332201 2.769175
Si 7.700273 2.704071 4.280183
Si 9.164789 2.343212 10.690780
Si 8.611139 5.856785 3.095983
Si 1.316942 0.916590 2.639057
Si 6.591549 4.979632 5.165735
Si 4.879697 2.416061 2.282580
Si 8.580409 9.488402 2.766303
Si 8.989754 8.040976 1.011035
Si 6.977120 9.922858 0.046239
Si 2.505584 9.648019 9.974374
64
Step 290
Si 1.354815 1.580168 8.669516
Si 5.966681 3.254519 6.835901
Si 3.528063 0.414734 1.276564
Si 2.142546 5.707849 10.444418
Si 9.078598 0.968820 6.328929
Si 7.486895 6.874051 10.673662
Si 0.161555 4.307190 1.006602
Si 7.644202 3.110703 8.988790
Si 4.345644 6.226716 5.538874
Si 0.470204 7.277553 1.378070
Si 5.891480 6.762906 1.962740
Si 10.134101 4.026546 4.186283
Si 5.754354 1.489009 4.029089
Si 8.971131 3.922816 6.742352
Si 0.741427 0.438732 10.738949
Si 9.779985 10.009536 6.255162
Si 2.999608 6.528697 7.599041
Si 3.542420 4.280132 2.430370
Si 6.670037 6.932554 7.012882
Si 6.709471 4.833910 2.590554
Si 2.381683 6.449056 4.677631
Si 2.156959 8.903344 5.662768
Si 5.739883 8.617772 5.056169
Si 6.468824 1.092023 6.900269
Si 7.445339 1.216667 1.600580
Si 4.579805 6.703585 9.372841
Si 9.994042 5.944599 10.151806
Si 1.524621 4.077481 3.368124
Si 3.781090 0.067865 6.782918
Si 4.246372 3.506135 10.260025
Si 3.771461 3.721087 7.027696
Si 1.252376 7.832124 8.670151
Si 2.224143 1.758200 6.533275
Si 10.718065 3.327312 8.926006
Si 0.414762 1.681273 5.011179
Si 10.156845 7.328903 6.639885
Si 5.979757 8.585301 9.102931
Si 3.935028 6.019845 1.131253
Si 7.850323 7.608452 4.270998
Si 10.736780 6.732510 3.999960
Si 8.889824 0.370788 9.253740
Si 8.533181 5.964130 8.321554
Si 6.544798 3.594705 0.124999
Si 1.902127 2.488033 0.704474
Si 3.529386 10.300540 3.763536
Si 3.758151 1.142147 9.503228
Si 2.099615 4.356248 8.335655
Si 10.782210 9.144582 4.059852
Si 10.254528 9.671336 8.426452
Si 5.990036 0.919050 9.411539
Si 5.912964 10.023809 2.832486
Si 1.459381 9.294014 1.953789
Si 5.381442 9.395124 7.175100
Si 9.830310 2.314197 2.774116
Si 7.701885 2.671544 4.310603
Si 9.283831 2.273556 10.647484
Si 8.539546 6.055402 3.010841
Si 1.263098 0.954587 2.736713
Si 6.473669 4.940497 5.212632
Si 4.917029 2.455050 2.282882
Si 8.389220 9.640991 2.641731
Si 8.864373 8.023247 1.081343
Si 6.866339 10.034224 0.127606
Si 2.547709 9.711527 9.918421
64
Step 300
Si 1.312705 1.536757 8.604375
Si 5.958283 3.339909 6.854089
Si 3.687270 0.472700 1.249470
Si 2.144857 5.632283 10.681012
Si 9.006057 1.057465 6.410883
Si 7.383509 6.990531 10.721031
Si 0.118949 4.396083 0.832228
Si 7.577466 2.991088 9.049339
Si 4.403796 6.207091 5.525776
Si 0.527064 7.326492 1.341090
Si 5.958438 6.687336 1.853329
Si 10.204935 3.976536 4.220665
Si 5.737159 1.489454 4.016150
Si 9.062622 3.913238 6.655703
Si 0.676480 0.480146 10.710040
Si 9.687343 9.857403 6.179766
Si 2.899901 6.607451 7.646562
Si 3.565653 4.211573 2.469437
Si 6.653661 6.961675 7.070269
Si 6.733054 4.781457 2.630052
Si 2.420142 6.489794 4.651731
Si 2.305526 8.963139 5.616910
Si 5.542944 8.579405 5.070487
Si 6.610770 1.146432 6.838003
Si 7.488202 1.230087 1.481807
Si 4.723358 6.611043 9.395613
Si 9.997708 5.829565 10.136735
Si 1.490634 3.963927 3.402837
Si 3.784412 0.213446 6.814110
Si 4.200915 3.444153 10.309608
Si 3.833960 3.744941 6.931840
Si 1.269398 7.855135 8.728553
Si 2.153843 1.571649 6.462842
Si 0.009896 3.488290 9.066718
Si 0.384903 1.681004 5.171005
Si 10.290023 7.308765 6.754910
Si 5.764099 8.587666 9.106881
Si 3.889403 5.799721 1.128560
Si 7.760374 7.601589 4.546523
Si 10.764859 6.634714 4.092105
Si 8.906296 0.450170 9.427893
Si 8.586105 6.038301 8.157779
Si 6.535462 3.500099 0.239087
Si 1.880459 2.562551 0.498385
Si 3.503956 10.377824 3.625328
Si 3.869463 0.985428 9.388938
Si 2.015512 4.544723 8.384242
Si 0.052963 9.227331 4.131187
Si 10.183687 9.585605 8.279364
Si 5.977519 1.038581 9.377075
Si 5.864871 10.011472 2.874333
Si 1.431354 9.214868 1.787538
Si 5.379528 9.396361 7.117855
Si 9.849019 2.277429 2.655990
Si 7.688268 2.610298 4.359434
Si 9.443280 2.193663 10.687516
Si 8.618825 6.129373 2.880874
Si 1.186375 0.995207 2.888415
Si 6.369354 4.936728 5.271136
Si 4.981205 2.436918 2.225300
Si 8.240075 9.791229 2.570918
Si 8.785366 8.022441 1.154261
Si 6.808027 10.121173 0.138207
Si 2.580487 9.751105 9.895892
64
Step 310
Si 1.232979 1.499671 8.518637
Si 5.970751 3.452438 6.852381
Si 3.816810 0.496923 1.195608
Si 2.093109 5.628445 10.841084
Si 8.940940 1.251328 6.494141
Si 7.232043 7.140959 10.701154
Si 0.090151 4.457373 0.788760
Si 7.537786 2.956580 9.054234
Si 4.392094 6.195855 5.490615
Si 0.526492 7.346686 1.287345
Si 5.897107 6.658181 1.682272
Si 10.241187 3.965317 4.311739
Si 5.702614 1.442129 4.004945
Si 9.130972 3.872995 6.631788
Si 0.581465 0.453469 10.706281
Si 9.611230 9.688813 6.041364
Si 2.819993 6.709496 7.647641
Si 3.583417 4.039003 2.627989
Si 6.713115 6.895817 7.167927
Si 6.778448 4.633710 2.735076
Si 2.460816 6.530231 4.670782
Si 2.461982 8.974007 5.539290
Si 5.280294 8.599870 5.040383
Si 6.741859 1.127438 6.782307
Si 7.571819 1.286179 1.406193
Si 4.822486 6.451144 9.417848
Si 9.992263 5.815340 10.081547
Si 1.445655 3.858572 3.429668
Si 3.898111 0.290089 6.808048
Si 4.108341 3.377498 10.306669
Si 3.832520 3.733689 6.846367
Si 1.230656 7.862976 8.809946
Si 2.103448 1.459778 6.429503
Si 0.145492 3.622311 9.101549
Si 0.269813 1.629172 5.366895
Si 10.407531 7.249037 6.822042
Si 5.600804 8.681126 9.151430
Si 3.942018 5.731267 1.090363
Si 7.684047 7.637362 4.840801
Si 10.836153 6.576920 4.187580
Si 8.904999 0.449682 9.503225
Si 8.653732 6.112190 7.970170
Si 6.527825 3.412035 0.363208
Si 1.947742 2.659447 0.343433
Si 3.431820 10.439350 3.557776
Si 3.853066 0.840090 9.261173
Si 1.974646 4.724539 8.442318
Si 0.212629 9.338771 4.209373
Si 10.155397 9.534836 8.214548
Si 6.081280 1.114575 9.308145
Si 5.797662 9.964750 2.961850
Si 1.445565 9.264366 1.632217
Si 5.358643 9.435572 7.062001
Si 9.827940 2.248456 2.465023
Si 7.683018 2.559654 4.394068
Si 9.591725 2.144457 10.796456
Si 8.763036 6.167266 2.790083
Si 1.144282 0.982596 2.991221
Si 6.315702 4.967516 5.289648
Si 5.022517 2.417465 2.153251
Si 8.161229 9.870475 2.596102
Si 8.792801 8.033364 1.225813
Si 6.735309 10.128990 0.051217
Si 2.610656 9.770370 9.953476
64
Step 320
Si 1.125200 1.475628 8.483826
Si 6.032643 3.567452 6.809558
Si 3.889668 0.509850 1.144984
Si 2.058253 5.741392 0.061062
Si 8.936330 1.396451 6.615920
Si 7.113791 7.283309 10.691384
Si 0.051179 4.466007 0.941012
Si 7.551331 3.002724 9.016938
Si 4.401912 6.210714 5.483653
Si 0.444738 7.336583 1.229571
Si 5.837755 6.614228 1.540823
Si 10.196893 3.975472 4.434186
Si 5.662417 1.375847 4.007736
Si 9.158146 3.846311 6.713945
Si 0.559434 0.346685 10.778610
Si 9.509380 9.534837 5.835509
Si 2.808902 6.820691 7.630489
Si 3.571684 3.889090 2.751180
Si 6.788980 6.824420 7.257695
Si 6.835134 4.547331 2.809850
Si 2.399214 6.554545 4.669089
Si 2.619893 9.038918 5.449053
Si 5.019122 8.605022 5.006225
Si 6.795563 1.052901 6.734834
Si 7.670676 1.320230 1.379494
Si 4.841751 6.261064 9.421807
Si 9.915741 5.944513 9.973289
Si 1.402907 3.731196 3.431345
Si 3.991566 0.392053 6.761040
Si 4.015146 3.314080 10.225702
Si 3.728800 3.711857 6.854918
Si 1.132287 7.864619 8.955152
Si 2.091497 1.367958 6.393943
Si 0.231868 3.680256 8.963969
Si 0.094270 1.564536 5.483737
Si 10.521977 7.177569 6.891329
Si 5.419067 8.828718 9.206132
Si 4.058730 5.648135 1.090363
Si 7.647520 7.678730 5.107069
Si 0.081591 6.575677 4.260085
Si 8.900133 0.402392 9.440220
Si 8.788150 6.146885 7.812520
Si 6.546491 3.326554 0.481495
Si 2.080362 2.719840 0.265662
Si 3.263564 10.479280 3.497482
Si 3.823563 0.681625 9.127396
Si 2.032505 4.859088 8.504261
Si 0.379942 9.441467 4.283789
Si 10.148974 9.535550 8.224407
Si 6.215923 1.161025 9.242788
Si 5.759981 9.934602 3.014454
Si 1.507565 9.438730 1.489580
Si 5.373985 9.453755 7.005586
Si 9.813518 2.234666 2.302040
Si 7.683350 2.532804 4.382756
Si 9.697913 2.167360 0.065597
Si 8.899813 6.222437 2.707364
Si 1.130758 0.939653 3.005206
Si 6.335738 5.004521 5.276357
Si 5.036366 2.345734 2.098966
Si 8.087453 9.885550 2.642223
Si 8.873146 8.039675 1.311022
Si 6.651972 10.068570 10.856144
Si 2.615906 9.760644 10.050168
64
Step 330
Si 1.076109 1.456724 8.469064
Si 6.115899 3.606420 6.814905
Si 3.994896 0.515203 1.119560
Si 2.050118 5.873469 0.100866
Si 8.939950 1.485859 6.799207
Si 7.059151 7.425001 10.656527
Si 0.010608 4.493296 1.184442
Si 7.609483 3.101611 8.962421
Si 4.390475 6.208274 5.527166
Si 0.343723 7.353223 1.189986
Si 5.896110 6.559517 1.512562
Si 10.126325 4.000528 4.546536
Si 5.628488 1.261246 4.030907
Si 9.156692 3.821465 6.873668
Si 0.575054 0.249011 10.813828
Si 9.388108 9.410314 5.611267
Si 2.832731 6.950210 7.569122
Si 3.562915 3.818324 2.817553
Si 6.848194 6.795398 7.369279
Si 6.938722 4.557080 2.844269
Si 2.274966 6.533619 4.637591
Si 2.775060 9.109911 5.381562
Si 4.847333 8.560378 5.005619
Si 6.825964 1.000896 6.656418
Si 7.703597 1.279065 1.390574
Si 4.847699 6.071871 9.382109
Si 9.852839 6.097907 9.816423
Si 1.329124 3.638581 3.403686
Si 4.006007 0.510058 6.712477
Si 3.963006 3.324835 10.096351
Si 3.611845 3.757240 6.863899
Si 1.041331 7.866016 9.173563
Si 2.089891 1.316049 6.387148
Si 0.328350 3.701694 8.782218
Si 10.769646 1.451710 5.524065
Si 10.701232 7.112300 6.887262
Si 5.191810 8.972158 9.264013
Si 4.064115 5.436567 1.107480
Si 7.624410 7.736623 5.324371
Si 0.190290 6.586720 4.310158
Si 8.855366 0.320051 9.309362
Si 8.938147 6.147258 7.699536
Si 6.541295 3.252846 0.575767
Si 2.204973 2.731933 0.251422
Si 3.065947 10.552021 3.403256
Si 3.822171 0.542368 9.001961
Si 2.110402 4.899509 8.586377
Si 0.532221 9.517788 4.350658
Si 10.144619 9.621240 8.279768
Si 6.286388 1.175576 9.243446
Si 5.749627 9.931236 3.043600
Si 1.556812 9.603332 1.414008
Si 5.436434 9.394985 6.917885
Si 9.842245 2.254991 2.282009
Si 7.641836 2.508912 4.318021
Si 9.817265 2.225268 0.085525
Si 9.005507 6.209559 2.706736
Si 1.050970 0.934264 3.006556
Si 6.389833 5.100255 5.206820
Si 5.020465 2.249902 2.027247
Si 7.995136 9.865021 2.650694
Si 8.926299 8.095269 1.375776
Si 6.578515 10.036492 10.846904
Si 2.627289 9.683560 10.080530
64
Step 340
Si 1.062111 1.426535 8.532474
Si 6.214701 3.636421 6.788100
Si 4.062825 0.448190 1.037590
Si 2.028560 5.982383 0.143789
Si 8.914761 1.521579 7.013933
Si 7.046435 7.552890 10.593711
Si 0.023352 4.569782 1.396132
Si 7.653999 3.187689 8.944822
Si 4.404301 6.150509 5.618982
Si 0.238022 7.439372 1.165938
Si 5.979214 6.435422 1.567897
Si 10.042938 4.032034 4.653321
Si 5.598705 1.095801 4.104644
Si 9.128954 3.845299 7.074104
Si 0.566912 0.258059 10.743646
Si 9.294110 9.297746 5.439261
Si 2.872350 7.038597 7.458752
Si 3.546115 3.820350 2.864809
Si 6.859408 6.782702 7.499241
Si 7.049886 4.617735 2.827568
Si 2.227922 6.507106 4.636365
Si 2.817382 9.157134 5.297439
Si 4.804473 8.444474 4.974644
Si 6.852007 1.008274 6.558573
Si 7.684121 1.173279 1.428636
Si 4.866927 5.914246 9.292945
Si 9.825935 6.224597 9.709020
Si 1.271175 3.574977 3.379607
Si 4.055459 0.601622 6.637708
Si 3.986883 3.342015 9.910789
Si 3.521985 3.814093 6.869565
Si 0.923765 7.856140 9.379956
Si 1.987414 1.386729 6.406010
Si 0.403830 3.731042 8.635225
Si 10.632565 1.281978 5.454337
Si 0.020325 7.120343 6.784360
Si 4.951417 9.061044 9.290200
Si 4.067688 5.207379 1.148005
Si 7.606785 7.793202 5.553480
Si 0.147272 6.647046 4.343222
Si 8.825246 0.268007 9.234193
Si 9.085951 6.108412 7.577515
Si 6.521470 3.217434 0.627314
Si 2.193410 2.630721 0.238952
Si 2.968865 10.669785 3.282188
Si 3.771588 0.502921 8.938848
Si 2.219540 4.950741 8.641217
Si 0.598212 9.539866 4.445399
Si 10.196686 9.679817 8.300606
Si 6.313013 1.200139 9.290133
Si 5.714670 9.931824 3.093296
Si 1.567517 9.698592 1.417387
Si 5.586379 9.286459 6.872223
Si 9.857973 2.253649 2.393499
Si 7.616303 2.519814 4.226483
Si 9.975887 2.274390 10.791792
Si 9.097580 6.094781 2.781407
Si 0.900520 1.032518 3.005915
Si 6.474560 5.186006 5.156928
Si 5.017861 2.196476 1.989831
Si 7.953565 9.819481 2.619795
Si 8.963888 8.204072 1.418715
Si 6.516356 10.044235 0.039669
Si 2.679999 9.564053 10.041885
64
Step 350
Si 1.086730 1.394169 8.609685
Si 6.291506 3.574825 6.788136
Si 4.100930 0.343962 0.886704
Si 2.028379 6.060557 0.196531
Si 8.945986 1.475355 7.191214
Si 7.041803 7.617402 10.529702
Si 0.069681 4.650860 1.514575
Si 7.661581 3.305472 9.048332
Si 4.465423 6.016824 5.706811
Si 0.169154 7.582099 1.176342
Si 6.106422 6.305863 1.639606
Si 9.969508 4.046722 4.797451
Si 5.522071 0.908211 4.153272
Si 9.162838 3.902174 7.277744
Si 0.558121 0.313368 10.686732
Si 9.285444 9.240552 5.278421
Si 2.857388 7.108898 7.374797
Si 3.482320 3.784872 2.896480
Si 6.815962 6.781235 7.688776
Si 7.134027 4.723354 2.766382
Si 2.280273 6.446650 4.648558
Si 2.764380 9.225939 5.233194
Si 4.864210 8.293077 4.862013
Si 6.801027 1.021179 6.456056
Si 7.682518 1.057050 1.462997
Si 4.881095 5.822088 9.170908
Si 9.851545 6.327930 9.737794
Si 1.288101 3.584395 3.399262
Si 4.107438 0.701244 6.528301
Si 4.092141 3.337211 9.703781
Si 3.459769 3.833197 6.910811
Si 0.806730 7.831482 9.502168
Si 1.830907 1.529805 6.415235
Si 0.459735 3.791031 8.534278
Si 10.505893 1.085389 5.344748
Si 0.241180 7.209565 6.619075
Si 4.782140 9.052693 9.283281
Si 4.088237 5.061622 1.112946
Si 7.554028 7.830647 5.760663
Si 10.860122 6.758938 4.369459
Si 8.833522 0.212082 9.198167
Si 9.204527 6.055601 7.438732
Si 6.533993 3.242832 0.619840
Si 2.034245 2.465843 0.221022
Si 2.943166 10.808116 3.168844
Si 3.762004 0.561921 8.898858
Si 2.317840 5.012213 8.666992
Si 0.571898 9.506517 4.569072
Si 10.281923 9.725089 8.301794
Si 6.265587 1.235589 9.334555
Si 5.673678 9.911552 3.151869
Si 1.514999 9.721863 1.452389
Si 5.773573 9.239204 6.906891
Si 9.794462 2.211675 2.522106
Si 7.643858 2.578716 4.141163
Si 10.123352 2.352226 10.569058
Si 9.180432 5.935963 2.873052
Si 0.709144 1.162838 2.991286
Si 6.565009 5.242081 5.047844
Si 5.009195 2.146307 2.093430
Si 7.915977 9.824567 2.634105
Si 8.949066 8.254858 1.392813
Si 6.464601 10.093608 0.146975
Si 2.699235 9.420838 9.979911
64
Step 360
Si 1.158598 1.363861 8.569517
Si 6.360414 3.512402 6.767445
Si 4.095783 0.279900 0.722914
Si 2.068623 6.083886 0.250764
Si 9.069489 1.378941 7.323480
Si 7.019489 7.632370 10.455523
Si 0.144703 4.666940 1.576310
Si 7.647875 3.427790 9.229703
Si 4.546965 5.861826 5.780163
Si 0.117872 7.751050 1.256945
Si 6.186364 6.197433 1.648598
Si 9.941897 3.988810 4.923688
Si 5.440472 0.837292 4.194039
Si 9.255566 3.923769 7.453806
Si 0.576048 0.292879 10.717373
Si 9.278455 9.186657 5.149709
Si 2.799159 7.250480 7.379283
Si 3.480963 3.714915 2.917883
Si 6.745054 6.745030 7.929224
Si 7.213289 4.807693 2.687096
Si 2.340067 6.408719 4.617437
Si 2.734651 9.258751 5.211849
Si 4.926749 8.158053 4.717392
Si 6.723518 1.056828 6.356020
Si 7.721805 0.985780 1.507186
Si 4.925174 5.797264 9.073680
Si 9.875514 6.344022 9.699762
Si 1.285506 3.659785 3.460854
Si 4.116514 0.766287 6.404632
Si 4.251227 3.284391 9.554977
Si 3.443117 3.848087 6.927014
Si 0.730723 7.819193 9.488284
Si 1.620927 1.680441 6.383787
Si 0.479278 3.885553 8.495367
Si 10.403899 0.920893 5.321438
Si 0.426820 7.388071 6.545762
Si 4.723237 8.896120 9.231163
Si 4.149760 5.029493 0.986677
Si 7.552371 7.855104 5.940798
Si 10.672592 6.884168 4.370533
Si 8.827118 0.125740 9.141312
Si 9.337213 6.101894 7.365071
Si 6.498052 3.281901 0.590597
Si 1.947610 2.320390 0.249387
Si 2.893480 0.086581 3.077634
Si 3.786708 0.740526 8.848479
Si 2.352031 5.084653 8.704220
Si 0.580825 9.454520 4.644802
Si 10.370053 9.721251 8.274015
Si 6.219198 1.271679 9.387468
Si 5.637543 9.763936 3.194717
Si 1.440749 9.722842 1.488397
Si 5.926939 9.239763 6.968299
Si 9.579691 2.212796 2.588005
Si 7.652096 2.655788 4.058615
Si 10.145606 2.535792 10.385958
Si 9.255487 5.771578 2.961414
Si 0.590452 1.241912 2.948804
Si 6.626613 5.278198 4.978210
Si 5.021418 2.063478 2.277199
Si 7.885976 9.870579 2.732714
Si 8.901472 8.238173 1.331664
Si 6.379044 10.159845 0.207153
Si 2.616128 9.223266 9.951781
64
Step 370
Si 1.235815 1.307570 8.471034
Si 6.444873 3.476768 6.750095
Si 4.047736 0.277984 0.565661
Si 2.119990 6.066944 0.322057
Si 9.155152 1.288460 7.410726
Si 7.007369 7.624028 10.417168
Si 0.229461 4.624990 1.584748
Si 7.685026 3.535079 9.401115
Si 4.614748 5.723767 5.894557
Si 0.086832 7.879609 1.381287
Si 6.154752 6.225964 1.539992
Si 9.962068 3.867725 5.014948
Si 5.377829 0.760109 4.155670
Si 9.297944 3.912388 7.578444
Si 0.527391 0.162584 10.759753
Si 9.130765 9.115303 5.020455
Si 2.776729 7.431641 7.414668
Si 3.548291 3.661531 2.863529
Si 6.686830 6.683764 8.200906
Si 7.337842 4.759094 2.652793
Si 2.396232 6.433822 4.571938
Si 2.751777 9.235974 5.215385
Si 4.949796 8.044539 4.592300
Si 6.711449 1.097156 6.330139
Si 7.748855 0.947160 1.587928
Si 4.916085 5.780393 8.983741
Si 9.877754 6.285164 9.608073
Si 1.225240 3.772582 3.556935
Si 4.031265 0.757986 6.316306
Si 4.391104 3.234181 9.448203
Si 3.435004 3.824648 6.964442
Si 0.725546 7.823428 9.401087
Si 1.435550 1.841131 6.293099
Si 0.524389 4.014137 8.510748
Si 10.317903 0.860836 5.328257
Si 0.573326 7.594256 6.585802
Si 4.719773 8.656262 9.114088
Si 4.225163 5.018016 0.868211
Si 7.580004 7.860266 6.061151
Si 10.505001 6.954770 4.296568
Si 8.822117 0.075012 9.182997
Si 9.467760 6.222800 7.368253
Si 6.444327 3.320853 0.591895
Si 1.939743 2.234519 0.349066
Si 2.803568 0.180601 2.994684
Si 3.768714 0.927735 8.785774
Si 2.340503 5.198778 8.735198
Si 0.679607 9.489287 4.644577
Si 10.521572 9.675259 8.274138
Si 6.242496 1.259848 9.414805
Si 5.616984 9.619700 3.232312
Si 1.340236 9.711392 1.546879
Si 6.027046 9.309363 7.022967
Si 9.312392 2.262970 2.569418
Si 7.669212 2.718312 4.002151
Si 10.069623 2.757673 10.268534
Si 9.337369 5.612848 2.991135
Si 0.548424 1.285245 2.865675
Si 6.700169 5.361176 4.932590
Si 5.082720 1.981765 2.459711
Si 7.894111 9.895625 2.857005
Si 8.833641 8.226116 1.305299
Si 6.297405 10.216470 0.199339
Si 2.493628 9.032649 9.955583
64
Step 380
Si 1.286967 1.255228 8.441692
Si 6.528846 3.508920 6.774933
Si 3.936244 0.292401 0.407024
Si 2.111775 6.043818 0.404503
Si 9.174264 1.240613 7.484158
Si 7.005681 7.607644 10.421999
Si 0.290030 4.571527 1.486345
Si 7.737119 3.653214 9.512531
Si 4.664357 5.621757 6.054241
Si 0.052536 7.908674 1.514748
Si 6.044174 6.350823 1.350984
Si 10.015648 3.722139 5.109239
Si 5.352951 0.592580 4.198085
Si 9.252318 3.874151 7.608947
Si 0.412174 0.044469 10.730072
Si 8.935514 9.071049 4.835440
Si 2.827087 7.558468 7.440407
Si 3.586924 3.706035 2.784723
Si 6.757158 6.585351 8.405311
Si 7.464754 4.717094 2.598261
Si 2.442646 6.490830 4.533931
Si 2.853810 9.223649 5.202386
Si 4.983444 7.915084 4.539291
Si 6.765508 1.135849 6.387378
Si 7.754179 0.886204 1.661931
Si 4.800315 5.714258 8.910733
Si 9.891427 6.212830 9.590660
Si 1.225881 3.857980 3.669885
Si 3.886681 0.695713 6.289084
Si 4.473519 3.232034 9.361220
Si 3.504266 3.732807 6.974080
Si 0.667345 7.807809 9.393553
Si 1.293120 2.055358 6.153630
Si 0.551729 4.124402 8.544949
Si 10.242060 0.886737 5.317360
Si 0.671227 7.760936 6.647019
Si 4.702572 8.456568 9.006845
Si 4.290807 5.010630 0.778473
Si 7.532609 7.806613 6.164433
Si 10.404399 6.996952 4.180267
Si 8.795478 0.078618 9.269847
Si 9.530483 6.344990 7.337798
Si 6.400116 3.304450 0.645322
Si 1.910475 2.152311 0.434587
Si 2.717156 0.220803 2.932282
Si 3.700973 1.050374 8.711697
Si 2.325648 5.355570 8.757633
Si 0.811536 9.594303 4.581849
Si 10.732736 9.585985 8.305324
Si 6.362417 1.233041 9.342290
Si 5.636938 9.505975 3.240090
Si 1.286389 9.659524 1.605307
Si 6.070347 9.446457 7.031573
Si 9.122614 2.321626 2.496690
Si 7.667700 2.752692 4.071705
Si 10.043069 2.925658 10.243062
Si 9.468169 5.474100 2.952427
Si 0.510906 1.396701 2.772094
Si 6.761550 5.489583 4.965724
Si 5.171986 1.960595 2.481913
Si 7.934326 9.823316 2.973999
Si 8.759263 8.235524 1.363119
Si 6.215220 10.237793 0.145641
Si 2.412467 8.918821 10.051264
64
Step 390
Si 1.283038 1.237033 8.479933
Si 6.580894 3.626418 6.817343
Si 3.768278 0.320558 0.275869
Si 2.069870 6.063256 0.457022
Si 9.194242 1.209870 7.552646
Si 7.028696 7.650165 10.528023
Si 0.317289 4.466213 1.310716
Si 7.728948 3.786683 9.579014
Si 4.665618 5.569301 6.193118
Si 0.062322 7.798750 1.640355
Si 5.960340 6.471683 1.166019
Si 10.057223 3.580553 5.209434
Si 5.356925 0.401058 4.280447
Si 9.173008 3.818072 7.544790
Si 0.260817 0.017706 10.677977
Si 8.816842 9.023299 4.679877
Si 2.940364 7.633726 7.380556
Si 3.597207 3.817629 2.702342
Si 6.937570 6.433811 8.524112
Si 7.519558 4.775596 2.489539
Si 2.488820 6.521104 4.504325
Si 3.063581 9.247936 5.196011
Si 5.022438 7.749515 4.570097
Si 6.805376 1.151437 6.475857
Si 7.696632 0.779293 1.641400
Si 4.678873 5.600944 8.838478
Si 9.941819 6.130025 9.654115
Si 1.341022 3.916133 3.788387
Si 3.742075 0.628057 6.312233
Si 4.566787 3.235735 9.274386
Si 3.592747 3.536410 6.928189
Si 0.588507 7.740970 9.546744
Si 1.230384 2.312675 6.017496
Si 0.566175 4.161171 8.560550
Si 10.171287 0.894391 5.282596
Si 0.692411 7.885482 6.621240
Si 4.663561 8.358967 8.918427
Si 4.285557 4.966796 0.728767
Si 7.421662 7.710033 6.274002
Si 10.380282 7.091085 4.071959
Si 8.795703 0.147557 9.384518
Si 9.511043 6.464152 7.219538
Si 6.374608 3.269851 0.699396
Si 1.807527 2.070799 0.497054
Si 2.663897 0.239803 2.863233
Si 3.600948 1.144500 8.644265
Si 2.269736 5.550791 8.791471
Si 0.856564 9.719898 4.457391
Si 0.067540 9.558717 8.331966
Si 6.552276 1.175955 9.260962
Si 5.714385 9.439332 3.195358
Si 1.326616 9.649710 1.675955
Si 6.048737 9.631628 7.026626
Si 9.052815 2.342659 2.378932
Si 7.595489 2.777229 4.300940
Si 10.150742 2.977174 10.315059
Si 9.631703 5.347995 2.896249
Si 0.466203 1.556744 2.717447
Si 6.816015 5.621382 5.035638
Si 5.233448 1.936492 2.430916
Si 7.959071 9.727872 3.006739
Si 8.579058 8.290650 1.424539
Si 6.117822 10.191063 0.104802
Si 2.409037 8.846515 10.230603
64
Step 400
Si 1.214064 1.287418 8.557867
Si 6.632859 3.755809 6.889735
Si 3.596089 0.351916 0.173155
Si 2.053368 6.092313 0.561923
Si 9.242073 1.143264 7.614265
Si 7.079036 7.744332 10.648627
Si 0.330427 4.375366 1.126942
Si 7.681689 3.936258 9.660192
Si 4.568118 5.550593 6.294838
Si 0.065184 7.646814 1.768083
Si 5.902568 6.541853 1.046252
Si 10.026530 3.530018 5.238472
Si 5.329200 0.309152 4.368873
Si 9.088495 3.749444 7.410553
Si 0.090502 0.053913 10.644735
Si 8.864637 8.899607 4.698786
Si 3.054918 7.691817 7.251231
Si 3.616005 3.889239 2.625716
Si 7.147109 6.243474 8.651133
Si 7.492591 4.914163 2.370926
Si 2.526055 6.513460 4.544148
Si 3.270851 9.278301 5.207860
Si 5.086357 7.597718 4.607379
Si 6.808823 1.155487 6.561800
Si 7.637660 0.663158 1.570071
Si 4.587000 5.501114 8.780893
Si 9.942056 6.035693 9.694501
Si 1.563495 3.989331 3.877998
Si 3.589499 0.588950 6.357735
Si 4.710255 3.231573 9.218297
Si 3.623263 3.296726 6.810192
Si 0.477403 7.652209 9.789042
Si 1.326467 2.530938 5.935330
Si 0.638091 4.179947 8.562073
Si 10.111648 0.842413 5.211375
Si 0.688182 7.980501 6.498291
Si 4.658021 8.331337 8.849550
Si 4.219178 4.903166 0.694688
Si 7.294620 7.647940 6.381275
Si 10.413932 7.220493 4.040262
Si 8.787751 0.248394 9.546752
Si 9.473819 6.541640 7.087359
Si 6.323108 3.243554 0.722117
Si 1.684192 1.976296 0.529594
Si 2.699748 0.290616 2.791318
Si 3.521231 1.204822 8.602015
Si 2.184198 5.693605 8.788745
Si 0.794380 9.862237 4.332447
Si 0.223633 9.610033 8.334183
Si 6.731579 1.127602 9.195761
Si 5.796872 9.347000 3.093697
Si 1.356146 9.617246 1.730346
Si 5.969027 9.796338 7.008749
Si 9.054051 2.347693 2.252382
Si 7.491197 2.825888 4.544715
Si 10.259103 2.941648 10.438144
Si 9.808638 5.169762 2.874501
Si 0.421067 1.720170 2.687180
Si 6.909257 5.699883 5.037721
Si 5.255272 1.902038 2.402028
Si 7.885702 9.704338 2.884531
Si 8.438501 8.346124 1.418011
Si 6.024930 10.116526 0.068376
Si 2.518306 8.817333 10.418249
64
Step 410
Si 1.092541 1.390560 8.612584
Si 6.641363 3.873678 7.013288
Si 3.529650 0.348385 0.078487
Si 2.080040 6.076372 0.691372
Si 9.390205 1.102759 7.628174
Si 7.054170 7.818663 10.624414
Si 0.345566 4.363872 1.001907
Si 7.669579 4.041875 9.773098
Si 4.426949 5.493333 6.364868
Si 0.045377 7.507314 1.850454
Si 5.819630 6.532258 0.969181
Si 9.910679 3.485870 5.190150
Si 5.274286 0.270703 4.455385
Si 9.066097 3.709422 7.294268
Si 10.776827 0.101087 10.635334
Si 8.918020 8.796699 4.739756
Si 3.144441 7.739327 7.100747
Si 3.630664 3.885478 2.612690
Si 7.349166 6.058183 8.783334
Si 7.450491 5.042705 2.307226
Si 2.526432 6.516324 4.631640
Si 3.413232 9.324601 5.224997
Si 5.154169 7.475622 4.598503
Si 6.771030 1.132936 6.646064
Si 7.547280 0.645542 1.432042
Si 4.537932 5.439235 8.754297
Si 9.845823 5.876308 9.728292
Si 1.795184 4.101418 3.884784
Si 3.467616 0.540752 6.386964
Si 4.892678 3.204606 9.145835
Si 3.655814 3.100103 6.599923
Si 0.379877 7.615594 10.026921
Si 1.501380 2.682650 5.927234
Si 0.683028 4.173838 8.543957
Si 10.048933 0.817700 5.072960
Si 0.681877 8.067943 6.338486
Si 4.717473 8.363730 8.815540
Si 4.152895 4.887211 0.624772
Si 7.183037 7.642901 6.488511
Si 10.467205 7.349221 4.052224
Si 8.785750 0.339822 9.791536
Si 9.465175 6.571658 6.961610
Si 6.288230 3.224701 0.750326
Si 1.589850 1.882127 0.566279
Si 2.812495 0.394864 2.746393
Si 3.455952 1.199043 8.595689
Si 2.066994 5.821797 8.804917
Si 0.701833 9.996144 4.237426
Si 0.372949 9.686016 8.354166
Si 6.779649 1.141919 9.161460
Si 5.847722 9.222490 2.989024
Si 1.328785 9.528463 1.769297
Si 5.834999 9.933355 7.012711
Si 9.084535 2.429259 2.175061
Si 7.429095 2.873576 4.705644
Si 10.239574 2.857211 10.495266
Si 10.012682 4.935724 2.878095
Si 0.381099 1.884750 2.736049
Si 7.042319 5.725315 4.962399
Si 5.265861 1.866984 2.384163
Si 7.823491 9.674838 2.859236
Si 8.538015 8.324106 1.432236
Si 5.868488 10.063410 10.841430
Si 2.667852 8.823659 10.584910
64
Step 420
Si 1.017559 1.537512 8.577632
Si 6.604639 3.974695 7.101859
Si 3.542448 0.351697 0.019999
Si 2.137093 6.027087 0.810930
Si 9.575795 1.081167 7.559161
Si 6.965329 7.856552 10.532197
Si 0.421620 4.457538 0.922916
Si 7.691903 4.041391 9.926953
Si 4.330996 5.394120 6.373646
Si 0.001465 7.408767 1.905841
Si 5.700727 6.481115 0.914943
Si 9.827490 3.411010 5.057979
Si 5.204550 0.285092 4.473794
Si 9.125199 3.685366 7.272636
Si 10.677233 0.044715 10.687247
Si 8.907224 8.793328 4.782306
Si 3.206777 7.772843 6.984941
Si 3.637406 3.851054 2.629421
Si 7.507879 5.933330 8.881806
Si 7.408851 5.105447 2.301060
Si 2.498918 6.493117 4.694810
Si 3.470881 9.363953 5.237244
Si 5.196928 7.372893 4.561799
Si 6.757047 1.138139 6.712980
Si 7.484689 0.653901 1.273110
Si 4.508617 5.447995 8.779362
Si 9.773278 5.680380 9.741513
Si 1.968337 4.248427 3.897683
Si 3.322137 0.480339 6.411380
Si 5.099088 3.133867 9.067161
Si 3.744958 2.989528 6.343046
Si 0.284629 7.640058 10.223850
Si 1.614680 2.801373 5.958141
Si 0.689842 4.145144 8.467722
Si 9.968243 0.824922 4.969458
Si 0.656924 8.133555 6.211974
Si 4.810416 8.419765 8.805068
Si 4.120161 4.896546 0.534499
Si 7.086020 7.695084 6.603599
Si 10.587244 7.385857 4.097154
Si 8.715333 0.427871 10.064928
Si 9.477045 6.583987 6.819925
Si 6.284661 3.248891 0.771040
Si 1.565363 1.812195 0.634813
Si 2.972533 0.505499 2.730735
Si 3.392877 1.137771 8.672480
Si 1.929568 5.945686 8.852850
Si 0.629675 10.179761 4.150573
Si 0.530317 9.756835 8.406460
Si 6.713099 1.202582 9.136008
Si 5.767290 9.079854 2.892028
Si 1.279044 9.412369 1.782817
Si 5.692741 9.997739 7.076298
Si 8.997611 2.510867 2.129142
Si 7.400082 2.915824 4.753742
Si 10.053678 2.822666 10.427060
Si 10.188233 4.695647 2.935898
Si 0.390142 2.032902 2.881876
Si 7.184194 5.680512 4.855494
Si 5.215582 1.822674 2.363767
Si 7.904171 9.642415 2.894331
Si 8.804782 8.273939 1.443112
Si 5.677928 10.040345 10.751610
Si 2.820856 8.830506 10.710183
64
Step 430
Si 1.002228 1.710659 8.483147
Si 6.557978 4.087267 7.125907
Si 3.589920 0.354368 10.842070
Si 2.198109 6.038374 0.885246
Si 9.712262 1.072437 7.470220
Si 6.930102 7.893283 10.446968
Si 0.512988 4.563998 0.814906
Si 7.716248 3.902058 10.127073
Si 4.274249 5.275427 6.346956
Si 10.861481 7.290631 1.986603
Si 5.608949 6.475091 0.924607
Si 9.769098 3.382141 4.922109
Si 5.191220 0.275663 4.394713
Si 9.241792 3.661788 7.290052
Si 10.745722 10.732301 10.804668
Si 8.874156 8.862329 4.868590
Si 3.235700 7.787620 6.943000
Si 3.633203 3.822397 2.628790
Si 7.581954 5.936089 8.879178
Si 7.383777 5.099383 2.326196
Si 2.431956 6.467418 4.710312
Si 3.448129 9.380994 5.213040
Si 5.259392 7.289956 4.514745
Si 6.783625 1.172950 6.769651
Si 7.410930 0.631507 1.158196
Si 4.454139 5.525186 8.845747
Si 9.825206 5.582164 9.743209
Si 2.107611 4.389038 3.972078
Si 3.115300 0.458525 6.495125
Si 5.230597 2.992524 8.945215
Si 3.886830 2.930339 6.115873
Si 0.216983 7.721889 10.346279
Si 1.687567 2.937854 6.042311
Si 0.698899 4.104405 8.328068
Si 9.855945 0.817421 4.945709
Si 0.638194 8.219582 6.142055
Si 4.887975 8.448903 8.790159
Si 4.098248 4.861814 0.439103
Si 7.006059 7.754851 6.722167
Si 10.745769 7.367397 4.147133
Si 8.519382 0.516867 10.266226
Si 9.420376 6.585812 6.693931
Si 6.337782 3.259156 0.824001
Si 1.551131 1.748230 0.735784
Si 3.075938 0.556907 2.741045
Si 3.360865 1.088847 8.742024
Si 1.846126 6.075673 8.913362
Si 0.621089 10.329374 4.077084
Si 0.678121 9.773110 8.476812
Si 6.617353 1.269817 9.092909
Si 5.655206 8.951092 2.796215
Si 1.269851 9.344990 1.777108
Si 5.573726 10.017263 7.169344
Si 8.790367 2.611639 2.089102
Si 7.387881 2.962817 4.703251
Si 9.807097 2.815246 10.380440
Si 10.297900 4.528716 3.024923
Si 0.478960 2.114191 2.994456
Si 7.309369 5.617364 4.745807
Si 5.152928 1.777034 2.341726
Si 7.960672 9.627124 2.935280
Si 9.010064 8.215875 1.323819
Si 5.492875 10.031454 10.736428
Si 2.958474 8.763386 10.829740
64
Step 440
Si 1.000701 1.833159 8.441330
Si 6.555976 4.208504 7.094222
Si 3.585864 0.377127 10.860396
Si 2.278557 6.129971 0.955766
Si 9.794100 1.027565 7.391653
Si 6.940462 7.901468 10.383661
Si 0.571520 4.562585 0.703140
Si 7.757535 3.752740 10.232430
Si 4.240436 5.159398 6.281913
Si 0.047546 7.111590 2.112555
Si 5.607809 6.564107 1.030356
Si 9.728027 3.394832 4.883067
Si 5.258968 0.245936 4.382130
Si 9.329060 3.684375 7.338506
Si 0.031890 10.532025 0.062088
Si 8.871728 8.961587 4.995178
Si 3.264689 7.782807 6.927951
Si 3.687566 3.764330 2.520552
Si 7.588215 5.996793 8.787573
Si 7.359439 5.118309 2.388036
Si 2.373779 6.521251 4.719964
Si 3.376902 9.403822 5.171932
Si 5.327466 7.214400 4.505482
Si 6.860785 1.228184 6.772314
Si 7.275094 0.541531 1.267382
Si 4.370559 5.647103 8.891138
Si 9.968349 5.599478 9.737252
Si 2.132489 4.495207 4.097030
Si 2.899563 0.465650 6.587540
Si 5.220838 2.872403 8.805125
Si 4.069595 2.895183 5.958918
Si 0.177636 7.855781 10.313943
Si 1.741206 3.094342 6.112128
Si 0.709508 4.060727 8.159739
Si 9.672226 0.779045 4.980855
Si 0.649734 8.386654 6.164506
Si 4.943952 8.422852 8.754314
Si 4.093727 4.765675 0.354011
Si 6.946141 7.791646 6.816681
Si 0.030722 7.302415 4.252226
Si 8.430983 0.591181 10.328306
Si 9.258971 6.580018 6.559923
Si 6.308413 3.265717 0.952765
Si 1.491836 1.751821 0.814569
Si 3.061562 0.542593 2.725360
Si 3.314964 1.069572 8.782727
Si 1.845721 6.218021 8.981066
Si 0.685435 10.406583 4.018519
Si 0.790317 9.804364 8.520906
Si 6.574540 1.255316 8.969697
Si 5.587765 8.788448 2.649714
Si 1.311903 9.350602 1.763600
Si 5.477370 10.013642 7.210449
Si 8.546739 2.672626 2.075227
Si 7.347796 2.949178 4.634565
Si 9.612056 2.739429 10.345391
Si 10.399009 4.454255 3.085875
Si 0.636023 2.106438 3.036894
Si 7.417586 5.581197 4.698038
Si 5.123477 1.778654 2.305795
Si 7.980243 9.621497 2.887123
Si 9.044979 8.240299 1.154811
Si 5.357659 10.029146 10.794438
Si 3.052322 8.596856 0.093245
64
Step 450
Si 1.005421 1.841912 8.515204
Si 6.550831 4.344017 7.048038
Si 3.521525 0.460240 0.049596
Si 2.385338 6.239546 1.026659
Si 9.857051 0.966368 7.310249
Si 6.981956 7.888415 10.382569
Si 0.619900 4.486498 0.587682
Si 7.657411 3.730282 10.239078
Si 4.246172 5.114812 6.201226
Si 0.112900 6.943546 2.234777
Si 5.645236 6.675864 1.172303
Si 9.700776 3.428965 4.903205
Si 5.340880 0.150717 4.472548
Si 9.361055 3.744270 7.392737
Si 0.144814 10.403185 0.192231
Si 8.896174 9.075152 5.119400
Si 3.286744 7.734476 6.929539
Si 3.732410 3.724461 2.409801
Si 7.546964 6.017109 8.655466
Si 7.317580 5.201094 2.475329
Si 2.348411 6.658351 4.739320
Si 3.306666 9.451015 5.075947
Si 5.358653 7.128393 4.592957
Si 7.002497 1.264103 6.690070
Si 7.119036 0.377485 1.475234
Si 4.361584 5.775196 8.892708
Si 10.087151 5.637941 9.715548
Si 2.092024 4.492564 4.168570
Si 2.690605 0.493718 6.652911
Si 5.073538 2.882086 8.691202
Si 4.297151 2.808517 5.858359
Si 0.181312 7.959421 10.183541
Si 1.789495 3.241097 6.129764
Si 0.731093 4.081042 7.979443
Si 9.466439 0.703089 5.046447
Si 0.698659 8.646297 6.281443
Si 4.954960 8.356801 8.753143
Si 4.106595 4.676690 0.251707
Si 6.906878 7.810134 6.834538
Si 0.132190 7.217459 4.407934
Si 8.446744 0.649486 10.300488
Si 9.083873 6.564010 6.383126
Si 6.212014 3.290555 1.067437
Si 1.372612 1.761746 0.767233
Si 3.006967 0.461780 2.723344
Si 3.258318 1.085495 8.866769
Si 1.892240 6.380662 9.048027
Si 0.782682 10.418739 4.022741
Si 0.877215 9.892778 8.501674
Si 6.589306 1.143548 8.836345
Si 5.559615 8.633195 2.527540
Si 1.377372 9.364098 1.764089
Si 5.386513 10.025215 7.138378
Si 8.386819 2.659147 2.156390
Si 7.295307 2.944964 4.585701
Si 9.590982 2.579667 10.300585
Si 10.524587 4.416916 3.129765
Si 0.813474 2.060008 3.042439
Si 7.498427 5.591568 4.697971
Si 5.072455 1.809120 2.235223
Si 7.974657 9.601044 2.792152
Si 8.979706 8.322616 0.988592
Si 5.332559 10.034999 0.031158
Si 3.067508 8.336325 0.214397
64
Step 460
Si 0.952936 1.811916 8.755247
Si 6.547196 4.422657 6.968390
Si 3.474210 0.515758 0.125018
Si 2.490011 6.313302 1.103913
Si 9.910674 0.919521 7.276582
Si 7.023663 7.847949 10.439243
Si 0.651923 4.364682 0.461615
Si 7.504812 3.728445 10.181930
Si 4.260271 5.099860 6.117213
Si 0.184072 6.820410 2.351606
Si 5.680702 6.811768 1.290542
Si 9.728265 3.448171 4.908462
Si 5.388682 0.029716 4.558709
Si 9.334036 3.823269 7.419000
Si 0.193306 10.323201 0.320232
Si 8.956855 9.165507 5.241859
Si 3.299245 7.674645 6.929334
Si 3.664144 3.715671 2.373877
Si 7.523109 6.012938 8.546451
Si 7.250315 5.316484 2.512179
Si 2.381608 6.824599 4.731814
Si 3.259668 9.506053 4.920984
Si 5.352740 7.047010 4.727641
Si 7.163197 1.352188 6.579126
Si 6.976970 0.194006 1.655710
Si 4.419828 5.855726 8.881947
Si 10.119045 5.613963 9.677900
Si 2.034732 4.429408 4.183088
Si 2.544205 0.550306 6.668325
Si 4.963542 2.930733 8.589306
Si 4.569604 2.607756 5.795787
Si 0.186180 8.062080 10.045380
Si 1.881102 3.338076 6.093636
Si 0.756387 4.191710 7.862675
Si 9.261187 0.633055 5.088881
Si 0.706696 8.969138 6.426464
Si 4.968541 8.291798 8.822532
Si 4.108998 4.644033 0.120348
Si 6.850541 7.853456 6.805797
Si 0.183649 7.157320 4.543475
Si 8.471418 0.690096 10.253398
Si 8.968414 6.530764 6.173933
Si 6.152201 3.326708 1.144513
Si 1.191939 1.804514 0.658234
Si 3.016371 0.342551 2.753105
Si 3.233542 1.092572 8.920053
Si 1.961158 6.528960 9.106941
Si 0.817508 10.414154 4.090048
Si 0.950992 9.988573 8.450420
Si 6.645997 1.060083 8.756176
Si 5.525742 8.520320 2.466706
Si 1.459600 9.331370 1.772868
Si 5.257586 10.063797 7.014202
Si 8.339243 2.623034 2.283178
Si 7.219398 2.950504 4.578839
Si 9.631022 2.444866 10.263057
Si 10.664250 4.348141 3.136027
Si 0.935147 2.019294 3.057546
Si 7.556685 5.634004 4.760637
Si 4.970863 1.808460 2.178572
Si 7.972405 9.540337 2.687889
Si 8.930171 8.432639 0.826604
Si 5.305733 10.081763 0.117342
Si 3.113797 8.064219 0.307483
64
Step 470
Si 0.871228 1.860504 9.031351
Si 6.532182 4.438263 6.900732
Si 3.366836 0.570036 0.221195
Si 2.511181 6.188702 1.279969
Si 9.994053 0.939460 7.283280
Si 7.060212 7.768666 10.478011
Si 0.700298 4.293002 0.371440
Si 7.316732 3.685752 10.074082
Si 4.239401 5.081214 6.027713
Si 0.278287 6.727650 2.408360
Si 5.710247 6.838868 1.350007
Si 9.782560 3.400424 4.889758
Si 5.450220 10.794942 4.569622
Si 9.319588 3.898000 7.438434
Si 0.192307 10.281652 0.433776
Si 9.020633 9.206495 5.356662
Si 3.273679 7.653406 6.954996
Si 3.476112 3.744086 2.406056
Si 7.511966 5.993530 8.512966
Si 7.170295 5.364962 2.475026
Si 2.422777 6.949492 4.689062
Si 3.248971 9.513245 4.780210
Si 5.307117 7.046288 4.879490
Si 7.271624 1.454518 6.412915
Si 6.840219 0.093189 1.770160
Si 4.535096 5.843427 8.863962
Si 10.140273 5.548100 9.622743
Si 2.027590 4.427892 4.165121
Si 2.466780 0.640899 6.586424
Si 4.902694 3.024891 8.529656
Si 4.836027 2.303955 5.741967
Si 0.130843 8.144044 9.908361
Si 2.003865 3.366514 6.041567
Si 0.777366 4.345783 7.829086
Si 9.075122 0.590612 5.086622
Si 0.704316 9.292538 6.503931
Si 5.002715 8.270018 8.969718
Si 4.150308 4.626302 10.846657
Si 6.774563 7.965975 6.770815
Si 0.230543 7.132956 4.686122
Si 8.455729 0.619326 10.234965
Si 8.945298 6.551380 5.991105
Si 6.174847 3.420029 1.177385
Si 1.015474 1.833067 0.576694
Si 3.088798 0.226626 2.763097
Si 3.250162 1.095169 8.958046
Si 1.966230 6.649004 9.127046
Si 0.754743 10.406113 4.210560
Si 1.004310 10.050168 8.462405
Si 6.708255 1.011177 8.777434
Si 5.489796 8.513532 2.517322
Si 1.578043 9.255503 1.788803
Si 5.108368 10.159568 6.903375
Si 8.349727 2.613844 2.418516
Si 7.131813 2.948786 4.530335
Si 9.663901 2.454079 10.221640
Si 10.772210 4.236497 3.102080
Si 1.051263 1.933399 3.037012
Si 7.563048 5.653597 4.788259
Si 4.867345 1.769403 2.193449
Si 7.976986 9.382574 2.648999
Si 8.921364 8.552154 0.665569
Si 5.282783 10.077025 0.131678
Si 3.250706 7.999734 0.348191
64
Step 480
Si 0.806300 1.999251 9.172137
Si 6.517083 4.462934 6.869844
Si 3.273936 0.632355 0.246190
Si 2.495000 5.978828 1.476724
Si 10.080745 1.043320 7.313916
Si 7.070651 7.644634 10.461765
Si 0.774487 4.291870 0.371348
Si 7.131522 3.618185 9.897224
Si 4.163757 5.076580 5.963317
Si 0.391890 6.693825 2.424824
Si 5.725382 6.685437 1.305076
Si 9.810262 3.334335 4.874983
Si 5.561066 10.713917 4.452994
Si 9.309917 3.878748 7.372289
Si 0.104730 10.245664 0.530242
Si 9.060891 9.153857 5.432058
Si 3.266130 7.641824 7.019472
Si 3.239571 3.759432 2.454176
Si 7.503756 5.995022 8.529321
Si 7.105317 5.346990 2.434244
Si 2.435687 7.020264 4.628046
Si 3.269869 9.465322 4.658818
Si 5.283986 7.104855 5.017206
Si 7.355370 1.509464 6.308447
Si 6.763719 0.160346 1.843095
Si 4.651994 5.816335 8.810552
Si 10.141991 5.499679 9.602016
Si 2.054527 4.457306 4.114189
Si 2.480073 0.803135 6.447257
Si 4.889807 3.106287 8.483831
Si 5.002065 1.978290 5.714036
Si 0.044246 8.174387 9.784491
Si 2.138582 3.323454 6.034235
Si 0.848288 4.486919 7.795691
Si 8.919837 0.630150 5.053491
Si 0.661402 9.532774 6.453879
Si 5.067947 8.292705 9.086978
Si 4.246610 4.639895 10.763953
Si 6.661657 8.119468 6.769636
Si 0.285908 7.143411 4.854657
Si 8.448253 0.483529 10.263099
Si 9.057824 6.625559 5.904660
Si 6.203212 3.525680 1.228680
Si 0.875617 1.826945 0.610054
Si 3.186836 0.126221 2.769577
Si 3.324952 1.085591 8.999034
Si 1.956370 6.773250 9.121101
Si 0.633319 10.419759 4.322879
Si 1.056926 10.116195 8.669281
Si 6.710319 0.987095 8.806857
Si 5.408605 8.602422 2.718383
Si 1.699105 9.107893 1.798123
Si 4.969795 10.285098 6.893338
Si 8.341796 2.591003 2.526405
Si 7.059595 2.951339 4.393528
Si 9.554390 2.548488 10.174150
Si 10.842580 4.137669 3.024420
Si 1.220150 1.768307 3.007510
Si 7.454494 5.621614 4.708395
Si 4.803002 1.739494 2.270773
Si 8.016014 9.177419 2.655007
Si 8.951028 8.701059 0.541235
Si 5.237931 10.045430 0.113616
Si 3.389957 8.013492 0.375235
64
Step 490
Si 0.771155 2.157895 9.167679
Si 6.503995 4.447603 6.811098
Si 3.229650 0.639805 0.250664
Si 2.489142 5.808853 1.603903
Si 10.170516 1.189839 7.353014
Si 7.066031 7.521971 10.437651
Si 0.887454 4.327770 0.387838
Si 6.995212 3.527945 9.701613
Si 4.082834 5.092935 5.974645
Si 0.495795 6.697025 2.453894
Si 5.727296 6.565350 1.224494
Si 9.853622 3.304784 4.916274
Si 5.706022 10.637160 4.306193
Si 9.272881 3.809140 7.299286
Si 10.844081 10.211866 0.625444
Si 9.067202 9.099523 5.481059
Si 3.256323 7.646877 7.102579
Si 3.084432 3.722385 2.410811
Si 7.568792 5.995565 8.535901
Si 7.050002 5.277023 2.365771
Si 2.469640 7.050254 4.580276
Si 3.266550 9.380444 4.594176
Si 5.333626 7.203109 5.117272
Si 7.484070 1.544075 6.361371
Si 6.747810 0.307286 1.886798
Si 4.711434 5.833005 8.749960
Si 10.104412 5.469812 9.595863
Si 1.982603 4.483113 4.122553
Si 2.526444 0.985306 6.330993
Si 4.887874 3.108477 8.405770
Si 5.038013 1.722937 5.742972
Si 10.821217 8.141062 9.633676
Si 2.253408 3.249987 6.096593
Si 0.980680 4.591145 7.742841
Si 8.806635 0.609781 4.962875
Si 0.641589 9.713543 6.413552
Si 5.155293 8.340886 9.135763
Si 4.332698 4.667885 10.718016
Si 6.546273 8.274638 6.792288
Si 0.317228 7.216088 5.024575
Si 8.470012 0.298284 10.332080
Si 9.157262 6.669325 5.868666
Si 6.253753 3.595359 1.286361
Si 0.790623 1.765700 0.737651
Si 3.266348 0.033034 2.769136
Si 3.378982 1.069128 8.951763
Si 1.953881 6.890575 9.129876
Si 0.516802 10.463542 4.347609
Si 1.121393 10.223908 8.902302
Si 6.658960 0.970792 8.805089
Si 5.318000 8.662021 2.936077
Si 1.808326 8.943464 1.825099
Si 4.820107 10.378958 6.980079
Si 8.312048 2.540239 2.558140
Si 6.936620 3.032150 4.226065
Si 9.290697 2.735639 10.093826
Si 0.048467 4.073747 2.925467
Si 1.382844 1.567152 2.985322
Si 7.335563 5.589704 4.643218
Si 4.771136 1.791810 2.368049
Si 8.099403 8.973202 2.665127
Si 8.934579 8.857934 0.433142
Si 5.206501 10.026444 0.119611
Si 3.497785 7.995745 0.414239
64
Step 500
Si 0.814839 2.298437 9.124399
Si 6.450875 4.373200 6.705543
Si 3.164465 0.610585 0.207896
Si 2.573203 5.758461 1.593934
Si 10.276292 1.346549 7.409709
Si 7.082806 7.416942 10.386229
Si 0.974351 4.357080 0.309952
Si 6.911823 3.425790 9.552681
Si 4.064377 5.125642 6.094366
Si 0.590118 6.748716 2.491948
Si 5.701971 6.555564 1.131724
Si 9.843360 3.230844 4.923669
Si 5.932582 10.616114 4.191656
Si 9.229155 3.756921 7.228016
Si 10.816378 10.212956 0.735604
Si 8.976152 9.068837 5.537666
Si 3.246756 7.686191 7.129992
Si 3.088427 3.566487 2.297059
Si 7.710951 5.995395 8.525724
Si 7.027005 5.337759 2.306477
Si 2.563152 7.070110 4.557469
Si 3.154307 9.304152 4.630432
Si 5.385403 7.305565 5.177545
Si 7.612624 1.604663 6.534114
Si 6.810342 0.426263 1.879891
Si 4.742184 5.859681 8.682706
Si 10.076052 5.416942 9.578347
Si 1.828200 4.504043 4.256343
Si 2.538769 1.122293 6.213162
Si 4.853513 3.031230 8.269308
Si 5.054589 1.552917 5.836026
Si 10.734749 8.085996 9.471078
Si 2.301290 3.212264 6.209019
Si 1.110874 4.657601 7.740531
Si 8.735575 0.585804 4.781292
Si 0.667046 9.891714 6.382220
Si 5.279616 8.410917 9.152591
Si 4.414118 4.707256 10.701090
Si 6.469970 8.433946 6.829621
Si 0.414495 7.306367 5.149920
Si 8.433188 0.141933 10.400798
Si 9.109045 6.668663 5.887667
Si 6.264543 3.530671 1.233743
Si 0.716132 1.691052 0.878659
Si 3.302588 10.839906 2.777622
Si 3.407693 1.056860 8.848730
Si 1.941770 6.953914 9.156577
Si 0.452261 10.501987 4.347515
Si 1.167829 10.387762 9.128638
Si 6.556385 0.934377 8.780780
Si 5.295036 8.649969 3.070824
Si 1.864618 8.799397 1.874615
Si 4.651432 10.397098 7.133381
Si 8.387362 2.431522 2.537606
Si 6.764869 3.101712 4.156216
Si 9.041646 2.963898 10.038326
Si 10.840815 3.976050 2.863322
Si 1.511800 1.328782 2.982778
Si 7.258898 5.597205 4.611558
Si 4.751526 1.913912 2.462657
Si 8.188536 8.800883 2.693316
Si 8.840507 8.953178 0.314491
Si 5.191845 10.036351 0.146713
Si 3.558950 7.948728 0.478507
64
Step 510
Si 0.877832 2.422876 9.102535
Si 6.393151 4.270842 6.631895
Si 3.116725 0.569996 0.157480
Si 2.681128 5.733574 1.546274
Si 10.434699 1.475698 7.419554
Si 7.155578 7.332672 10.327862
Si 1.062544 4.373387 0.230840
Si 6.831017 3.364333 9.438495
Si 4.045718 5.153638 6.218129
Si 0.662890 6.780723 2.524100
Si 5.655217 6.623591 1.056490
Si 9.771326 3.106639 4.928965
Si 6.164097 10.584394 4.109740
Si 9.189209 3.761117 7.180542
Si 0.071275 10.220621 0.842818
Si 8.816824 9.025905 5.587458
Si 3.226070 7.789014 7.150051
Si 3.128156 3.403780 2.172562
Si 7.834275 6.000187 8.486856
Si 7.029083 5.469466 2.265624
Si 2.712079 7.070240 4.529175
Si 3.028019 9.268398 4.740969
Si 5.428877 7.389198 5.200372
Si 7.721662 1.683777 6.719708
Si 6.904388 0.500213 1.811752
Si 4.793021 5.891022 8.642886
Si 10.039682 5.338912 9.552473
Si 1.661548 4.515196 4.388167
Si 2.500236 1.195921 6.076363
Si 4.758291 2.959884 8.125395
Si 5.112522 1.404863 5.906645
Si 10.655320 8.069396 9.329276
Si 2.328154 3.237748 6.346561
Si 1.219730 4.726314 7.787499
Si 8.689293 0.603362 4.569839
Si 0.732702 10.052628 6.422362
Si 5.431829 8.468650 9.131751
Si 4.485998 4.707928 10.674871
Si 6.455886 8.635741 6.884769
Si 0.476790 7.407540 5.281341
Si 8.315769 0.081644 10.440855
Si 8.982950 6.634719 5.924387
Si 6.251975 3.365388 1.104775
Si 0.608626 1.633146 0.974502
Si 3.391592 10.811923 2.753379
Si 3.450074 1.052047 8.732757
Si 1.944583 6.995229 9.171076
Si 0.331034 10.572494 4.299243
Si 1.156020 10.538665 9.320943
Si 6.472500 0.834258 8.811183
Si 5.384667 8.601173 3.151013
Si 1.868193 8.705014 1.933672
Si 4.498408 10.309203 7.298506
Si 8.510209 2.296360 2.507629
Si 6.636226 3.121760 4.134493
Si 8.848034 3.171037 10.000365
Si 10.738460 3.834792 2.792078
Si 1.585669 1.122433 3.064054
Si 7.242891 5.672172 4.585006
Si 4.734929 2.023632 2.547204
Si 8.195077 8.643053 2.715796
Si 8.673578 8.953302 0.206754
Si 5.159743 10.110604 0.199415
Si 3.595980 7.910574 0.552458
64
Step 520
Si 0.951363 2.567674 9.127203
Si 6.370670 4.184858 6.544914
Si 3.084346 0.549134 0.137869
Si 2.764240 5.656963 1.543599
Si 10.641291 1.572871 7.401853
Si 7.210025 7.260724 10.224454
Si 1.152530 4.359564 0.168756
Si 6.767368 3.334346 9.357320
Si 3.982349 5.208168 6.350683
Si 0.738397 6.747899 2.576967
Si 5.614329 6.726854 1.022735
Si 9.716600 2.970183 4.957188
Si 6.420011 10.543362 4.069948
Si 9.193392 3.858828 7.149579
Si 0.210191 10.184515 0.908611
Si 8.660640 9.004020 5.589946
Si 3.225893 7.888987 7.221948
Si 3.103229 3.263261 2.058174
Si 7.862311 6.002104 8.412156
Si 7.024128 5.565547 2.246878
Si 2.828524 7.006692 4.468571
Si 2.888593 9.311354 4.853667
Si 5.497994 7.473844 5.231001
Si 7.793958 1.728600 6.878650
Si 6.999006 0.533063 1.691140
Si 4.864380 5.965233 8.633922
Si 10.059221 5.328322 9.522122
Si 1.492134 4.557256 4.455955
Si 2.412086 1.169609 5.893405
Si 4.580778 2.910316 7.983081
Si 5.244836 1.230384 5.890868
Si 10.594909 8.069659 9.224513
Si 2.351508 3.373533 6.490455
Si 1.290020 4.808576 7.908446
Si 8.669414 0.611060 4.384021
Si 0.788097 10.177431 6.510620
Si 5.583658 8.474724 9.105208
Si 4.523884 4.654215 10.629674
Si 6.501510 8.804383 6.879885
Si 0.506917 7.526044 5.420834
Si 8.153413 0.098103 10.474356
Si 8.827005 6.566576 5.990668
Si 6.282650 3.191823 1.008717
Si 0.469280 1.613971 1.044472
Si 3.502562 10.780603 2.714699
Si 3.467813 1.068248 8.656413
Si 1.960702 6.987408 9.187853
Si 0.127257 10.605002 4.250217
Si 1.060085 10.637727 9.474014
Si 6.438341 0.686256 8.915811
Si 5.495056 8.550111 3.183050
Si 1.852555 8.701806 1.980573
Si 4.326034 10.164758 7.443633
Si 8.625531 2.148912 2.428626
Si 6.559417 3.124899 4.118984
Si 8.717625 3.300248 9.970678
Si 10.666699 3.696470 2.669758
Si 1.650902 1.020865 3.169710
Si 7.249466 5.763970 4.571326
Si 4.789596 2.129059 2.610126
Si 8.133783 8.543491 2.754035
Si 8.535818 8.903696 0.120288
Si 5.155644 10.213994 0.269746
Si 3.648063 7.921852 0.587421
64
Step 530
Si 1.013174 2.691223 9.225833
Si 6.376493 4.129217 6.470997
Si 3.001050 0.550038 0.112708
Si 2.822898 5.535409 1.586622
Si 10.859773 1.647779 7.364441
Si 7.229729 7.162265 10.129466
Si 1.193912 4.293565 0.135946
Si 6.624861 3.300444 9.217739
Si 3.918997 5.345400 6.449718
Si 0.811887 6.683245 2.698064
Si 5.613583 6.790291 1.019956
Si 9.714439 2.847298 5.004516
Si 6.648048 10.537060 4.063787
Si 9.243623 3.997581 7.145535
Si 0.314486 10.078948 0.968754
Si 8.525279 8.969610 5.520185
Si 3.232497 7.948869 7.303866
Si 3.053399 3.125570 1.958753
Si 7.837433 5.932660 8.305088
Si 7.007340 5.641849 2.264481
Si 2.934511 6.880130 4.373346
Si 2.753867 9.357408 4.939957
Si 5.532825 7.531969 5.304853
Si 7.840641 1.668747 7.017162
Si 7.082592 0.564355 1.529936
Si 4.894344 6.081108 8.638996
Si 10.136382 5.347127 9.500564
Si 1.323987 4.630475 4.444678
Si 2.340590 1.158266 5.720651
Si 4.406697 2.854762 7.888077
Si 5.433932 1.059830 5.821851
Si 10.582287 8.085728 9.177564
Si 2.356413 3.490276 6.576773
Si 1.329465 4.947839 8.086595
Si 8.687687 0.626725 4.268095
Si 0.798452 10.294250 6.612579
Si 5.685461 8.507542 9.092796
Si 4.557037 4.610780 10.606606
Si 6.593308 8.954752 6.817559
Si 0.484524 7.643716 5.546644
Si 7.994286 0.131951 10.525500
Si 8.716714 6.531332 6.087154
Si 6.334746 3.059182 0.953330
Si 0.363434 1.658054 1.104305
Si 3.668907 10.700553 2.693556
Si 3.448776 1.084995 8.624384
Si 2.004172 6.971915 9.185193
Si 10.710982 10.595227 4.243885
Si 0.911706 10.658683 9.563349
Si 6.402897 0.541163 9.006951
Si 5.541358 8.557127 3.144620
Si 1.848266 8.746729 2.000398
Si 4.142697 10.048215 7.546507
Si 8.695271 2.009516 2.281406
Si 6.505921 3.129358 4.081001
Si 8.748157 3.409098 9.956384
Si 10.674150 3.590600 2.504551
Si 1.725095 1.033483 3.275355
Si 7.233489 5.861561 4.553421
Si 4.820036 2.268605 2.662338
Si 8.066938 8.407366 2.786055
Si 8.530169 8.856489 0.085089
Si 5.138422 10.298666 0.349890
Si 3.697534 7.930037 0.595627
64
Step 540
Si 1.060374 2.717902 9.327498
Si 6.398033 4.073079 6.419413
Si 2.880419 0.600212 0.091874
Si 2.878965 5.431786 1.673927
Si 0.185032 1.736598 7.358578
Si 7.254281 7.056253 10.078889
Si 1.147433 4.251641 0.100192
Si 6.466618 3.249961 9.042316
Si 3.890438 5.534766 6.506270
Si 0.857543 6.602622 2.857053
Si 5.678660 6.804097 1.073882
Si 9.762970 2.761028 5.040218
Si 6.774207 10.563154 4.042820
Si 9.309313 4.087410 7.136193
Si 0.371404 9.948614 1.025977
Si 8.456826 8.859101 5.454285
Si 3.218152 7.986874 7.363315
Si 2.969546 2.987978 1.846349
Si 7.772426 5.811301 8.180175
Si 6.977279 5.649508 2.301665
Si 3.060688 6.745760 4.295738
Si 2.646486 9.344666 4.997129
Si 5.532617 7.563241 5.369273
Si 7.849733 1.601738 7.136925
Si 7.106898 0.643284 1.432272
Si 4.913404 6.138618 8.635800
Si 10.194495 5.417804 9.547510
Si 1.118959 4.655525 4.377683
Si 2.366892 1.160614 5.557315
Si 4.321729 2.820343 7.808886
Si 5.619897 0.933998 5.794507
Si 10.613536 8.120536 9.202035
Si 2.317501 3.608013 6.623320
Si 1.380067 5.113600 8.221703
Si 8.719081 0.680404 4.227222
Si 0.750617 10.390095 6.720796
Si 5.720402 8.607658 9.069139
Si 4.612402 4.556826 10.553107
Si 6.683875 9.102340 6.727418
Si 0.397099 7.762278 5.624259
Si 7.918065 0.127541 10.514546
Si 8.708797 6.573091 6.172862
Si 6.369406 3.014353 0.932814
Si 0.334665 1.692042 1.144522
Si 3.904866 10.570375 2.715789
Si 3.403529 1.024076 8.671175
Si 2.087573 7.005236 9.184905
Si 10.488886 10.531996 4.199498
Si 0.760081 10.651097 9.576977
Si 6.301984 0.435338 8.962558
Si 5.515194 8.582287 3.106415
Si 1.872314 8.780385 2.067111
Si 3.969522 10.024238 7.582173
Si 8.717064 1.927760 2.108405
Si 6.472034 3.142684 4.016169
Si 8.825843 3.516793 9.915196
Si 10.740859 3.570380 2.407927
Si 1.737765 1.096769 3.401181
Si 7.173087 5.991183 4.559887
Si 4.880866 2.333446 2.759072
Si 8.034609 8.200582 2.799723
Si 8.674279 8.799987 0.078973
Si 5.054229 10.349788 0.433784
Si 3.678210 7.961353 0.567404
64
Step 550
Si 1.087777 2.581106 9.398862
Si 6.428694 4.033342 6.332539
Si 2.756729 0.694178 0.109097
Si 2.960966 5.385859 1.761956
Si 0.322521 1.875742 7.384317
Si 7.292789 7.004156 10.071571
Si 1.133929 4.293653 0.153988
Si 6.337635 3.178900 8.873162
Si 3.885747 5.710557 6.535490
Si 0.879747 6.569954 3.055853
Si 5.721405 6.820649 1.084140
Si 9.816500 2.699008 5.034284
Si 6.727994 10.591117 4.005662
Si 9.426105 4.045887 7.104288
Si 0.382257 9.791736 1.104573
Si 8.473741 8.707652 5.396647
Si 3.157637 8.007788 7.393320
Si 2.886768 2.789018 1.719582
Si 7.640870 5.731970 8.097144
Si 6.985915 5.519428 2.348870
Si 3.173314 6.656419 4.204354
Si 2.549277 9.270477 4.976878
Si 5.537212 7.613403 5.423853
Si 7.844339 1.577953 7.234956
Si 7.020371 0.685179 1.429318
Si 4.919102 6.135380 8.654156
Si 10.182347 5.530144 9.622817
Si 0.892083 4.614808 4.337030
Si 2.467291 1.178962 5.418828
Si 4.268387 2.849107 7.717511
Si 5.801818 0.826135 5.839567
Si 10.659740 8.205716 9.282840
Si 2.269501 3.710582 6.632588
Si 1.457273 5.253261 8.259679
Si 8.656812 0.909544 4.235446
Si 0.669521 10.411410 6.819952
Si 5.731984 8.696153 9.045347
Si 4.656554 4.488185 10.491825
Si 6.700789 9.274236 6.624376
Si 0.293361 7.909030 5.621433
Si 7.963316 0.026852 10.389281
Si 8.780510 6.671102 6.233504
Si 6.362030 3.085022 0.878861
Si 0.340196 1.628661 1.147484
Si 4.099016 10.458280 2.771948
Si 3.291473 0.945186 8.765580
Si 2.224586 7.131216 9.215516
Si 10.564392 10.325705 4.185101
Si 0.616996 10.642202 9.524330
Si 6.259444 0.354376 8.869987
Si 5.418987 8.616411 3.109419
Si 1.941367 8.834207 2.180315
Si 3.838416 10.125913 7.547936
Si 8.772319 1.943307 1.966079
Si 6.516536 3.160616 4.008110
Si 8.855784 3.583309 9.856182
Si 10.815650 3.578577 2.397059
Si 1.701250 1.141029 3.486607
Si 7.073336 6.073751 4.626772
Si 4.953702 2.340035 2.855411
Si 8.029838 7.995961 2.800139
Si 8.857349 8.753517 0.062684
Si 4.903621 10.365543 0.521593
Si 3.623114 7.975447 0.483990
64
Step 560
Si 1.119902 2.471690 9.489928
Si 6.465377 4.031428 6.187721
Si 2.704551 0.765190 0.181442
Si 3.068245 5.351540 1.793730
Si 0.455977 2.025737 7.310576
Si 7.360090 6.999300 10.143435
Si 1.149023 4.396049 0.227576
Si 6.229126 3.114072 8.746848
Si 3.892747 5.855370 6.535948
Si 0.899036 6.603485 3.277839
Si 5.799866 6.805133 1.074715
Si 9.873142 2.653432 5.030378
Si 6.700172 10.608564 3.942644
Si 9.551576 3.949068 7.085919
Si 0.347965 9.658204 1.214418
Si 8.563526 8.614563 5.322646
Si 3.062690 8.050756 7.377409
Si 2.851702 2.592303 1.614914
Si 7.520456 5.664777 8.048676
Si 6.951759 5.297499 2.350049
Si 3.291079 6.614880 4.104213
Si 2.435952 9.185619 4.890747
Si 5.517470 7.687327 5.493086
Si 7.907036 1.635707 7.270400
Si 6.899982 0.662187 1.398117
Si 4.937962 6.074980 8.732041
Si 10.113909 5.651944 9.679458
Si 0.679361 4.558708 4.337935
Si 2.579930 1.198295 5.396178
Si 4.170114 2.863628 7.612817
Si 5.902068 0.761244 5.923734
Si 10.741476 8.308436 9.412031
Si 2.201955 3.793135 6.604449
Si 1.507155 5.305882 8.276277
Si 8.616659 1.201677 4.246558
Si 0.625412 10.387728 6.877512
Si 5.687165 8.763610 9.021388
Si 4.680887 4.447075 10.461884
Si 6.655751 9.400462 6.555230
Si 0.258421 8.083977 5.581722
Si 8.057853 10.735604 10.234920
Si 8.833737 6.734105 6.295139
Si 6.376205 3.251588 0.818952
Si 0.301921 1.461050 1.115799
Si 4.134969 10.388550 2.862997
Si 3.195084 0.946935 8.860173
Si 2.355048 7.331299 9.286641
Si 10.733694 10.114396 4.164748
Si 0.462019 10.586668 9.436675
Si 6.226493 0.259685 8.817498
Si 5.310245 8.589275 3.123334
Si 2.043767 8.874026 2.372457
Si 3.742952 10.285804 7.393551
Si 8.850302 1.995379 1.897693
Si 6.651082 3.200558 4.061170
Si 8.806022 3.655143 9.790302
Si 0.018590 3.608740 2.428083
Si 1.634872 1.091785 3.521080
Si 6.970509 6.088439 4.715067
Si 4.979470 2.306385 2.920413
Si 8.030308 7.853899 2.769799
Si 9.011818 8.686160 0.054910
Si 4.704660 10.337136 0.578807
Si 3.589735 7.968736 0.369191
64
Step 570
Si 1.110743 2.454708 9.541858
Si 6.493498 4.039291 6.065417
Si 2.733084 0.768951 0.270723
Si 3.196175 5.366938 1.753842
Si 0.653846 2.155200 7.203008
Si 7.457565 7.053061 10.209169
Si 1.148955 4.536165 0.310391
Si 6.148352 3.071570 8.634972
Si 3.889413 5.984736 6.552895
Si 0.910976 6.636027 3.500469
Si 5.865019 6.802858 1.051914
Si 10.028625 2.658360 5.037910
Si 6.742573 10.665930 3.810449
Si 9.639699 3.897745 7.123879
Si 0.285784 9.559785 1.337270
Si 8.632326 8.645042 5.189455
Si 2.993989 8.120093 7.336612
Si 2.873091 2.443401 1.579627
Si 7.398266 5.597009 8.015912
Si 6.922583 5.019631 2.371227
Si 3.441281 6.563664 3.982881
Si 2.401900 9.108321 4.866871
Si 5.443520 7.778368 5.570248
Si 7.993079 1.757324 7.259863
Si 6.814130 0.624470 1.307754
Si 4.951245 6.005660 8.824931
Si 10.064973 5.760109 9.726577
Si 0.494481 4.509913 4.395433
Si 2.665876 1.212358 5.533023
Si 4.053809 2.843666 7.485230
Si 5.931120 0.769469 6.007783
Si 0.028915 8.396351 9.541932
Si 2.124212 3.886560 6.540011
Si 1.506900 5.314381 8.320325
Si 8.526349 1.445161 4.205499
Si 0.624498 10.399573 6.950417
Si 5.557683 8.771165 9.065363
Si 4.692689 4.458914 10.490937
Si 6.598382 9.437011 6.505860
Si 0.267693 8.179227 5.556136
Si 8.133962 10.591623 10.132708
Si 8.880452 6.691838 6.397697
Si 6.466964 3.419605 0.768382
Si 0.181334 1.203585 1.074689
Si 4.070688 10.393354 2.921199
Si 3.106377 1.008435 8.901293
Si 2.458194 7.520569 9.337859
Si 10.858653 10.025044 4.051645
Si 0.347874 10.517477 9.329669
Si 6.198769 0.187699 8.835186
Si 5.257823 8.481279 3.114061
Si 2.130137 8.865397 2.525935
Si 3.665201 10.462985 7.168205
Si 8.889604 2.046006 1.902049
Si 6.793295 3.175425 4.103661
Si 8.699878 3.716497 9.723701
Si 0.088459 3.659607 2.438532
Si 1.535277 1.003503 3.502205
Si 6.909348 6.081379 4.819989
Si 4.986052 2.172482 2.967598
Si 8.014880 7.736496 2.710728
Si 9.082992 8.590972 0.096169
Si 4.523046 10.286850 0.582053
Si 3.549468 7.909730 0.282704
64
Step 580
Si 1.009106 2.524247 9.553846
Si 6.460928 4.099785 6.023842
Si 2.755814 0.683788 0.281516
Si 3.335044 5.380134 1.657950
Si 0.878004 2.227430 7.129069
Si 7.543187 7.110363 10.253411
Si 1.151451 4.650026 0.387896
Si 6.085284 2.993927 8.532766
Si 3.863121 6.078242 6.641255
Si 0.917646 6.609452 3.726882
Si 5.892131 6.817794 1.034013
Si 10.265174 2.665855 5.102063
Si 6.849547 10.723111 3.660202
Si 9.644480 3.927766 7.221854
Si 0.202951 9.504138 1.444613
Si 8.601004 8.712824 5.000200
Si 2.989070 8.223326 7.254011
Si 2.872005 2.485337 1.670215
Si 7.317536 5.545027 8.001019
Si 6.898231 4.754985 2.417079
Si 3.595129 6.484411 3.851355
Si 2.507163 9.009718 4.962534
Si 5.389553 7.846477 5.639290
Si 8.081398 1.917887 7.258887
Si 6.704198 0.579252 1.190498
Si 4.954087 5.992139 8.885993
Si 10.040479 5.859188 9.759139
Si 0.350665 4.526189 4.497566
Si 2.741077 1.227375 5.680833
Si 3.985858 2.833032 7.344829
Si 5.941560 0.810325 6.108574
Si 0.222504 8.404308 9.656471
Si 2.059137 4.010029 6.460107
Si 1.517968 5.324342 8.393475
Si 8.361593 1.571595 4.117884
Si 0.652417 10.467560 7.072829
Si 5.373511 8.747440 9.131503
Si 4.694252 4.455662 10.572109
Si 6.547274 9.456115 6.456696
Si 0.230550 8.134623 5.613923
Si 8.210329 10.458790 10.048177
Si 8.952623 6.616038 6.517964
Si 6.602934 3.551289 0.728581
Si 0.020224 0.905528 1.033615
Si 4.049583 10.469636 2.941693
Si 3.025431 1.064043 8.886414
Si 2.508322 7.628738 9.365136
Si 10.831551 10.092150 3.879630
Si 0.269233 10.512113 9.235808
Si 6.164618 0.135040 8.918778
Si 5.294179 8.285795 3.074011
Si 2.223170 8.780609 2.541988
Si 3.604204 10.628627 6.975339
Si 8.929297 2.137576 1.844291
Si 6.890636 3.119576 4.059749
Si 8.562321 3.736113 9.651451
Si 0.175177 3.653928 2.337855
Si 1.405662 1.004794 3.452453
Si 6.853810 6.143599 4.929378
Si 5.021558 2.005713 2.991626
Si 7.970893 7.617521 2.666886
Si 9.074211 8.497922 0.174580
Si 4.446298 10.211002 0.548530
Si 3.567675 7.814644 0.269860
64
Step 590
Si 0.837780 2.606816 9.636842
Si 6.364715 4.182571 6.024143
Si 2.723371 0.596026 0.303178
Si 3.485425 5.381932 1.536789
Si 1.034226 2.183613 7.085537
Si 7.569204 7.131704 10.248149
Si 1.166997 4.718198 0.448266
Si 6.013013 2.894431 8.448832
Si 3.829677 6.099706 6.775768
Si 0.977252 6.603028 3.961925
Si 5.903242 6.800712 0.980803
Si 10.468348 2.579005 5.147165
Si 6.958075 10.654302 3.522325
Si 9.619102 4.029804 7.369335
Si 0.143421 9.444899 1.600141
Si 8.482131 8.780034 4.777986
Si 2.996390 8.330135 7.235002
Si 2.795287 2.622104 1.800836
Si 7.276684 5.548983 8.034384
Si 6.903348 4.642142 2.553814
Si 3.667623 6.365977 3.713161
Si 2.620083 8.908299 5.037876
Si 5.356921 7.868783 5.666745
Si 8.120952 2.069562 7.244439
Si 6.630832 0.562514 0.998501
Si 4.956023 6.032871 8.926549
Si 9.974573 5.932898 9.760111
Si 0.237835 4.583840 4.575831
Si 2.773599 1.263272 5.600784
Si 4.035236 2.877506 7.203941
Si 5.952422 0.885949 6.218917
Si 0.417189 8.354039 9.740083
Si 2.049778 4.274032 6.383641
Si 1.582887 5.413255 8.522951
Si 8.300880 1.609084 4.056635
Si 0.673826 10.493596 7.147412
Si 5.225337 8.700936 9.146115
Si 4.721286 4.430083 10.697315
Si 6.540413 9.507044 6.475373
Si 0.156842 8.057878 5.703345
Si 8.272612 10.345700 10.019453
Si 9.034389 6.533827 6.638603
Si 6.738716 3.528890 0.595364
Si 10.738698 0.685379 0.930537
Si 4.042676 10.581662 2.957713
Si 2.957263 1.070216 8.901758
Si 2.471426 7.652019 9.314732
Si 10.771829 10.191079 3.710014
Si 0.166031 10.563521 9.191561
Si 6.179645 0.072730 8.971635
Si 5.379297 8.105525 3.028644
Si 2.263772 8.634201 2.472612
Si 3.614855 10.722225 6.921043
Si 8.995275 2.237814 1.715989
Si 6.839679 3.193343 3.953137
Si 8.435605 3.725598 9.612260
Si 0.269237 3.580643 2.175947
Si 1.319695 1.110442 3.412652
Si 6.850994 6.257434 5.049211
Si 5.077786 1.863278 3.012891
Si 7.944696 7.476292 2.687347
Si 9.027351 8.429254 0.255443
Si 4.431417 10.162743 0.493386
Si 3.632855 7.700627 0.389112
64
Step 600
Si 0.637467 2.663399 9.740305
Si 6.265178 4.264539 6.019806
Si 2.652736 0.560448 0.356330
Si 3.537993 5.328832 1.421893
Si 1.097316 2.136752 7.041665
Si 7.512388 7.131161 10.184132
Si 1.206890 4.829049 0.410899
Si 5.929385 2.809560 8.433586
Si 3.844510 6.051017 6.858216
Si 1.065767 6.629546 4.193814
Si 6.001683 6.789650 0.876874
Si 10.605652 2.469910 5.121812
Si 7.038604 10.528706 3.409852
Si 9.677069 4.145833 7.487748
Si 0.086605 9.328627 1.753668
Si 8.358735 8.850466 4.571625
Si 2.912835 8.432579 7.315496
Si 2.763359 2.706522 1.968518
Si 7.198525 5.603568 8.127627
Si 6.938623 4.741814 2.553933
Si 3.682652 6.264542 3.635154
Si 2.749818 8.794788 4.956563
Si 5.352616 7.895864 5.638370
Si 8.116857 2.182616 7.159663
Si 6.631954 0.577424 0.787373
Si 4.966931 6.077398 8.976132
Si 9.945975 5.963569 9.725668
Si 0.135749 4.595250 4.640957
Si 2.778253 1.344347 5.290184
Si 4.143115 3.006287 7.064977
Si 5.994668 0.955672 6.280899
Si 0.542373 8.324018 9.837079
Si 2.069808 4.633294 6.318166
Si 1.600946 5.484533 8.684047
Si 8.363382 1.557521 4.054955
Si 0.715875 10.456058 7.149696
Si 5.188924 8.636297 9.125582
Si 4.793212 4.378418 10.759718
Si 6.563344 9.539988 6.482643
Si 0.055778 8.009641 5.781916
Si 8.333400 10.261090 10.049196
Si 9.146667 6.493585 6.745689
Si 6.874027 3.425423 0.453700
Si 10.633283 0.578879 0.735255
Si 4.029131 10.675683 3.016541
Si 2.934935 1.033609 8.981887
Si 2.372265 7.626625 9.253791
Si 10.683392 10.238660 3.613932
Si 0.003995 10.654514 9.252088
Si 6.209653 0.009337 9.016356
Si 5.472633 8.015502 3.031532
Si 2.296369 8.452904 2.407381
Si 3.672738 10.754037 6.990438
Si 9.038429 2.295319 1.552118
Si 6.663765 3.202162 3.955546
Si 8.305044 3.691743 9.651856
Si 0.334406 3.457118 2.092986
Si 1.258509 1.281440 3.401760
Si 6.870317 6.394924 5.171096
Si 5.086543 1.780128 3.028276
Si 7.966832 7.302994 2.732169
Si 8.992938 8.397067 0.377590
Si 4.429010 10.136704 0.430512
Si 3.666192 7.607055 0.582749
64
Step 610
Si 0.454959 2.743785 9.800182
Si 6.187550 4.358303 5.997186
Si 2.599727 0.538001 0.421252
Si 3.516423 5.215604 1.322462
Si 1.125947 2.146465 7.009784
Si 7.520509 7.185695 10.083784
Si 1.237822 4.906643 0.330119
Si 5.828694 2.748896 8.539932
Si 3.908795 5.997481 6.853616
Si 1.173766 6.662009 4.421859
Si 6.123039 6.772192 0.813947
Si 10.673277 2.424324 5.121013
Si 7.037317 10.443776 3.288300
Si 9.883632 4.205522 7.562388
Si 0.083920 9.138595 1.856799
Si 8.249809 8.905758 4.421931
Si 2.830263 8.574475 7.383144
Si 2.818369 2.773368 2.103654
Si 7.080364 5.652991 8.256550
Si 7.023323 4.929808 2.491528
Si 3.684489 6.157089 3.638631
Si 2.884097 8.680555 4.832411
Si 5.320607 7.943286 5.587419
Si 8.108417 2.318506 7.035252
Si 6.673693 0.646677 0.656608
Si 4.951547 6.097392 9.042818
Si 9.943286 6.011182 9.678767
Si 0.022219 4.519442 4.714333
Si 2.831553 1.415371 4.930894
Si 4.160216 3.133734 6.911566
Si 6.049048 0.943493 6.267638
Si 0.501518 8.347096 10.023187
Si 2.050887 4.971319 6.263010
Si 1.547766 5.494634 8.860162
Si 8.454091 1.504360 4.027317
Si 0.781816 10.383328 7.127159
Si 5.175539 8.637716 9.039442
Si 4.841901 4.319497 10.739777
Si 6.575748 9.557298 6.468684
Si 10.776630 8.039789 5.837931
Si 8.421374 10.205197 10.102186
Si 9.282665 6.510172 6.821476
Si 6.988054 3.300620 0.389767
Si 10.544853 0.533249 0.493758
Si 4.004363 10.683516 3.110761
Si 2.882855 1.047709 9.022609
Si 2.376543 7.516109 9.257889
Si 10.584601 10.286469 3.641571
Si 10.708608 10.722501 9.311587
Si 6.237013 10.807999 9.023017
Si 5.544403 8.033597 3.035052
Si 2.314127 8.317623 2.303801
Si 3.783017 10.787191 7.088837
Si 9.060082 2.291921 1.388789
Si 6.466984 3.136561 4.054669
Si 8.227667 3.636095 9.669596
Si 0.328925 3.367272 2.041516
Si 1.185458 1.391570 3.420186
Si 6.940739 6.478928 5.264267
Si 5.103425 1.686090 3.049760
Si 8.060446 7.121380 2.798902
Si 8.948911 8.330133 0.503090
Si 4.380313 10.125534 0.422786
Si 3.654025 7.545115 0.743679
64
Step 620
Si 0.310598 2.877756 9.809939
Si 6.150443 4.465815 5.988620
Si 2.541126 0.517494 0.464954
Si 3.435232 5.100718 1.230557
Si 1.198383 2.175536 7.010893
Si 7.648611 7.307850 9.946892
Si 1.254069 4.916519 0.262778
Si 5.692059 2.732998 8.648941
Si 3.973991 6.001894 6.784480
Si 1.292070 6.726426 4.616448
Si 6.174662 6.732622 0.831748
Si 10.635523 2.347828 5.174558
Si 6.973952 10.449863 3.119532
Si 10.143984 4.213108 7.611889
Si 0.132375 8.953512 1.919199
Si 8.222339 8.959389 4.344703
Si 2.735173 8.727515 7.420554
Si 2.961946 2.820509 2.209907
Si 7.030954 5.655975 8.319744
Si 7.103269 5.038349 2.432371
Si 3.676456 6.029258 3.695110
Si 3.014396 8.594970 4.725621
Si 5.236804 7.976538 5.557062
Si 8.103937 2.507078 6.883528
Si 6.706573 0.744561 0.600796
Si 4.865585 6.019638 9.100684
Si 9.907105 6.041415 9.616217
Si 10.759987 4.456257 4.753823
Si 3.015217 1.473270 4.715200
Si 4.098994 3.140559 6.737768
Si 6.082705 0.958911 6.248000
Si 0.390722 8.423355 10.230731
Si 2.026068 5.250458 6.267448
Si 1.469791 5.430659 8.995749
Si 8.488650 1.438852 3.998340
Si 0.886431 10.314207 7.109998
Si 5.142288 8.671446 8.960814
Si 4.886709 4.267486 10.686484
Si 6.605020 9.563613 6.440166
Si 10.599680 8.159592 5.832044
Si 8.435555 10.127265 10.171731
Si 9.379452 6.528428 6.892722
Si 7.030154 3.159178 0.503011
Si 10.535930 0.559894 0.354589
Si 3.968533 10.603053 3.171002
Si 2.763763 1.090829 9.065865
Si 2.440968 7.412206 9.288470
Si 10.485648 10.310621 3.756421
Si 10.635844 10.754244 9.262308
Si 6.225429 10.790304 9.011024
Si 5.594566 8.097443 3.012465
Si 2.244472 8.203209 2.232688
Si 3.891167 0.013993 7.186786
Si 9.102999 2.251443 1.256909
Si 6.313889 3.070173 4.150385
Si 8.315647 3.612863 9.540699
Si 0.237112 3.349347 1.964980
Si 1.048193 1.384978 3.438229
Si 7.108458 6.481909 5.379295
Si 5.180467 1.594970 3.013233
Si 8.207790 6.940590 2.901052
Si 8.889811 8.258118 0.627297
Si 4.302863 10.142537 0.422468
Si 3.671442 7.524609 0.814067
64
Step 630
Si 0.213049 2.916593 9.787902
Si 6.144660 4.542292 6.032196
Si 2.510735 0.528792 0.516508
Si 3.327504 4.996140 1.140055
Si 1.323257 2.230038 7.039192
Si 7.767591 7.425253 9.824059
Si 1.298748 4.886090 0.268669
Si 5.597385 2.714218 8.708710
Si 4.053355 6.070399 6.683037
Si 1.406532 6.817849 4.793253
Si 6.180318 6.690700 0.856747
Si 10.525970 2.190891 5.248470
Si 6.884829 10.500736 2.925668
Si 10.434197 4.191193 7.590693
Si 0.170448 8.831584 1.962577
Si 8.255190 9.030872 4.325215
Si 2.646619 8.843069 7.405762
Si 3.124675 2.858818 2.260521
Si 7.039284 5.599559 8.346100
Si 7.143301 5.080777 2.387092
Si 3.677476 5.889434 3.740874
Si 3.142018 8.588814 4.629002
Si 5.119999 7.978951 5.550243
Si 8.062123 2.728786 6.729909
Si 6.707110 0.808831 0.585841
Si 4.736313 5.949430 9.141889
Si 9.816962 6.092748 9.580004
Si 10.628126 4.449378 4.756835
Si 3.188360 1.534148 4.683121
Si 3.967692 3.054520 6.557873
Si 6.165913 1.052439 6.259662
Si 0.302214 8.509501 10.405292
Si 1.962474 5.450801 6.340873
Si 1.454959 5.396271 9.036346
Si 8.501286 1.388756 3.967121
Si 0.987809 10.270490 7.133833
Si 5.140089 8.695429 8.879672
Si 4.938373 4.217398 10.612253
Si 6.654969 9.571359 6.408164
Si 10.434294 8.316001 5.769297
Si 8.335246 10.063046 10.253206
Si 9.410304 6.510238 6.946996
Si 7.036197 3.047495 0.636502
Si 10.614782 0.658404 0.375692
Si 3.921036 10.387691 3.160287
Si 2.552598 1.164948 9.129555
Si 2.499306 7.310529 9.361909
Si 10.372840 10.306617 3.877539
Si 10.665022 10.745339 9.057137
Si 6.194166 10.799840 9.001607
Si 5.626189 8.157271 2.950333
Si 2.119312 8.043404 2.294934
Si 3.965255 0.185218 7.286097
Si 9.189476 2.198657 1.197979
Si 6.233101 2.987155 4.217157
Si 8.407283 3.614818 9.340524
Si 0.127513 3.359107 1.912235
Si 0.871007 1.323454 3.448051
Si 7.329704 6.435159 5.529433
Si 5.301417 1.593939 2.857636
Si 8.383531 6.777908 3.041872
Si 8.819972 8.186088 0.763755
Si 4.230807 10.166430 0.420853
Si 3.741756 7.533902 0.790169
64
Step 640
Si 0.145570 2.871542 9.742377
Si 6.126799 4.589877 6.118561
Si 2.446566 0.592105 0.557390
Si 3.224817 4.879396 1.126163
Si 1.467383 2.279745 7.080607
Si 7.773711 7.507183 9.659251
Si 1.278569 4.812130 0.308407
Si 5.572515 2.710234 8.710659
Si 4.188073 6.136699 6.573255
Si 1.456959 6.906714 4.957763
Si 6.184733 6.618931 0.877097
Si 10.406799 2.027275 5.308694
Si 6.819001 10.502125 2.724828
Si 10.700037 4.158140 7.518728
Si 0.183760 8.783492 1.994583
Si 8.257069 9.061313 4.361812
Si 2.663848 8.864131 7.393439
Si 3.191955 2.900684 2.284835
Si 7.034991 5.500475 8.381889
Si 7.187125 5.147890 2.373742
Si 3.685287 5.781540 3.737648
Si 3.258905 8.652655 4.596310
Si 5.013065 7.958672 5.550134
Si 8.013913 2.955282 6.569555
Si 6.645057 0.815140 0.530015
Si 4.667293 5.898426 9.107975
Si 9.750282 6.195818 9.580101
Si 10.521005 4.511015 4.757928
Si 3.278310 1.574488 4.703271
Si 3.862062 2.960110 6.407941
Si 6.325617 1.182112 6.276546
Si 0.258184 8.622898 10.505849
Si 1.878050 5.572618 6.449981
Si 1.523845 5.435702 9.036588
Si 8.475386 1.353058 3.958969
Si 1.027774 10.246866 7.156601
Si 5.138896 8.732423 8.798968
Si 4.987112 4.138844 10.528915
Si 6.691835 9.547676 6.387885
Si 10.293821 8.454127 5.699858
Si 8.243190 10.068467 10.320766
Si 9.414994 6.488954 6.967333
Si 7.041881 2.995983 0.771112
Si 10.740120 0.701272 0.451823
Si 3.856224 10.162615 3.133244
Si 2.283457 1.251542 9.209285
Si 2.551240 7.280462 9.431263
Si 10.294364 10.285790 3.941457
Si 10.713898 10.715377 8.864510
Si 6.172077 10.816364 8.975201
Si 5.689110 8.171119 2.854595
Si 2.016471 7.829369 2.348202
Si 4.016748 0.403472 7.355571
Si 9.299785 2.153445 1.205543
Si 6.242640 2.942284 4.302574
Si 8.405429 3.600071 9.131161
Si 0.077146 3.350747 1.937047
Si 0.730354 1.289134 3.404613
Si 7.551444 6.443424 5.651116
Si 5.369808 1.611479 2.645349
Si 8.498509 6.597377 3.215996
Si 8.761430 8.109961 0.978247
Si 4.203905 10.126753 0.450535
Si 3.803825 7.610994 0.780324
64
Step 650
Si 0.078149 2.833384 9.662646
Si 6.052285 4.666578 6.198890
Si 2.408179 0.648350 0.584068
Si 3.239039 4.801464 1.170579
Si 1.617761 2.305068 7.089646
Si 7.701104 7.566775 9.443183
Si 1.138107 4.680162 0.335665
Si 5.560361 2.725768 8.643951
Si 4.335854 6.142774 6.471384
Si 1.366710 7.025001 5.092411
Si 6.191559 6.502241 0.847815
Si 10.315842 1.922424 5.371580
Si 6.799943 10.445390 2.580021
Si 0.024366 4.121005 7.432409
Si 0.186065 8.784133 2.002132
Si 8.147593 9.022197 4.388059
Si 2.872629 8.757871 7.401299
Si 3.099697 2.875875 2.338140
Si 7.032094 5.407979 8.471885
Si 7.217486 5.144429 2.350048
Si 3.677485 5.738606 3.686883
Si 3.198642 8.706439 4.599322
Si 5.089181 7.932993 5.580256
Si 8.043764 3.162158 6.446103
Si 6.531396 0.762069 0.415047
Si 4.640845 5.911036 9.033933
Si 9.731568 6.360208 9.597815
Si 10.428918 4.639417 4.767610
Si 3.322632 1.576760 4.636919
Si 3.839645 2.934460 6.310372
Si 6.499648 1.257342 6.289925
Si 0.223948 8.733979 10.522850
Si 1.821134 5.630488 6.595280
Si 1.606759 5.500397 9.049672
Si 8.354014 1.347489 3.954081
Si 1.002022 10.292020 7.072221
Si 5.127049 8.752402 8.776464
Si 5.051724 4.053259 10.473798
Si 6.704076 9.501110 6.377358
Si 10.266675 8.534379 5.685802
Si 8.269588 10.082782 10.345199
Si 9.436768 6.479061 7.015596
Si 7.087981 3.048019 0.884574
Si 10.860396 0.612131 0.560027
Si 3.835434 10.087684 3.037717
Si 2.050511 1.318103 9.321359
Si 2.608611 7.351024 9.509107
Si 10.276540 10.249935 3.907891
Si 10.629868 10.665392 8.849846
Si 6.136968 10.826334 8.930743
Si 5.858599 8.157014 2.787038
Si 1.929385 7.581362 2.367629
Si 4.035693 0.609328 7.450245
Si 9.412122 2.123858 1.267169
Si 6.264205 2.919734 4.343895
Si 8.358722 3.577058 8.937425
Si 0.088167 3.379462 2.047297
Si 0.692968 1.295238 3.307896
Si 7.715411 6.490187 5.710050
Si 5.383635 1.679363 2.510082
Si 8.572986 6.428562 3.438319
Si 8.700968 7.998566 1.255834
Si 4.150815 10.103732 0.414279
Si 3.819735 7.676196 0.775249
64
Step 660
Si 10.824761 2.827938 9.584616
Si 5.963531 4.742027 6.252664
Si 2.387478 0.725376 0.654537
Si 3.284756 4.786444 1.193974
Si 1.720203 2.278220 7.070375
Si 7.576562 7.624099 9.257330
Si 0.971649 4.515844 0.355302
Si 5.578434 2.800975 8.507065
Si 4.352658 6.051509 6.391453
Si 1.252166 7.102047 5.258498
Si 6.215156 6.393589 0.744590
Si 10.236980 1.896338 5.472574
Si 6.807149 10.350131 2.520060
Si 0.093217 4.042934 7.327855
Si 0.180177 8.788257 1.984031
Si 7.974152 8.998084 4.394937
Si 3.078172 8.667378 7.353853
Si 2.944796 2.793038 2.435585
Si 7.033561 5.379112 8.594274
Si 7.228721 5.026366 2.308600
Si 3.607335 5.792198 3.603747
Si 3.080001 8.680591 4.640588
Si 5.255558 7.969295 5.515530
Si 8.210102 3.343143 6.332682
Si 6.391540 0.666555 0.304637
Si 4.623013 5.952210 9.011035
Si 9.790684 6.552948 9.650243
Si 10.316762 4.787333 4.741442
Si 3.355038 1.549686 4.472747
Si 3.910393 2.975528 6.244758
Si 6.662618 1.243655 6.341074
Si 0.198924 8.771170 10.491434
Si 1.861602 5.760187 6.677050
Si 1.672976 5.586163 9.146538
Si 8.207972 1.341110 3.923945
Si 0.963875 10.357375 7.012714
Si 5.125762 8.755550 8.828721
Si 5.110736 4.000072 10.446925
Si 6.708905 9.461684 6.375198
Si 10.302890 8.587918 5.714820
Si 8.435244 10.046832 10.335570
Si 9.486553 6.463627 7.094207
Si 7.167734 3.181469 0.965430
Si 0.022939 0.428358 0.702361
Si 3.882550 10.131689 2.873902
Si 1.864746 1.366388 9.351101
Si 2.625779 7.493088 9.643212
Si 10.296993 10.191425 3.824856
Si 10.549409 10.597332 8.841485
Si 6.092005 10.806069 8.838730
Si 6.042840 8.143227 2.752399
Si 1.917320 7.323387 2.386711
Si 4.037781 0.755369 7.553609
Si 9.487984 2.112727 1.341026
Si 6.204068 2.888263 4.308158
Si 8.325129 3.529001 8.771888
Si 0.125195 3.457309 2.234017
Si 0.767052 1.336990 3.243277
Si 7.790604 6.577881 5.733055
Si 5.340622 1.780160 2.479424
Si 8.669465 6.290957 3.662918
Si 8.602711 7.865270 1.536692
Si 4.125424 10.047746 0.315557
Si 3.800913 7.707363 0.794398
64
Step 670
Si 10.632875 2.836454 9.598066
Si 6.052658 4.718316 6.255232
Si 2.388748 0.810106 0.752866
Si 3.345055 4.795226 1.243178
Si 1.798729 2.222053 7.008655
Si 7.454598 7.743686 9.133492
Si 0.818769 4.350497 0.345223
Si 5.623297 2.867327 8.413565
Si 4.137410 6.028926 6.347809
Si 1.113900 7.197208 5.318797
Si 6.227925 6.357204 0.649684
Si 10.164589 1.861084 5.544430
Si 6.821860 10.280085 2.459869
Si 0.097703 3.977714 7.208612
Si 0.119276 8.763141 1.985384
Si 7.853420 9.038309 4.407183
Si 3.233541 8.626740 7.274532
Si 2.798011 2.742511 2.481696
Si 7.029012 5.422094 8.727451
Si 7.243554 4.852940 2.305294
Si 3.521495 5.907605 3.571738
Si 2.981458 8.622035 4.652823
Si 5.342337 7.999568 5.401479
Si 8.438933 3.516453 6.222844
Si 6.246694 0.562613 0.179938
Si 4.577109 5.968633 8.999812
Si 9.930094 6.756701 9.733739
Si 10.222947 4.903582 4.725332
Si 3.375006 1.503403 4.340077
Si 4.000458 3.035076 6.124274
Si 6.804805 1.167086 6.401119
Si 0.182130 8.705651 10.435267
Si 1.993888 5.858626 6.815044
Si 1.666776 5.704669 9.262874
Si 8.119439 1.297982 3.836612
Si 0.945894 10.432101 6.934275
Si 5.174910 8.728141 8.884556
Si 5.157809 3.964785 10.401728
Si 6.750474 9.493874 6.412378
Si 10.389193 8.671098 5.771485
Si 8.595211 9.944949 10.349366
Si 9.558576 6.454834 7.130555
Si 7.265980 3.286052 1.021518
Si 10.858841 0.246566 0.861083
Si 3.962844 10.204121 2.731530
Si 1.698063 1.381341 9.315953
Si 2.598424 7.649839 9.768964
Si 10.318611 10.129035 3.732704
Si 10.460302 10.548826 8.846069
Si 6.065062 10.810755 8.772949
Si 6.128906 8.082141 2.680124
Si 1.932967 7.075966 2.444067
Si 4.019107 0.808261 7.656049
Si 9.521878 2.175321 1.371548
Si 6.101395 2.891348 4.226406
Si 8.379207 3.419304 8.633904
Si 0.118401 3.588003 2.428978
Si 0.897723 1.337843 3.287786
Si 7.782435 6.658055 5.764273
Si 5.299991 1.869283 2.447088
Si 8.791974 6.144808 3.839084
Si 8.512177 7.754239 1.792734
Si 4.128888 10.002993 0.200931
Si 3.810280 7.690817 0.849910
64
Step 680
Si 10.436476 2.830525 9.665843
Si 6.206252 4.709993 6.253595
Si 2.409625 0.885258 0.825280
Si 3.423262 4.778392 1.281632
Si 1.826715 2.151958 6.955595
Si 7.377544 7.875608 9.070939
Si 0.695744 4.197498 0.298847
Si 5.684599 2.932435 8.319155
Si 3.979493 5.992975 6.307199
Si 0.953225 7.260975 5.305479
Si 6.253591 6.362597 0.558614
Si 10.156274 1.754348 5.559159
Si 6.851117 10.300569 2.348638
Si 0.183317 3.941462 7.122378
Si 0.022200 8.644042 2.013440
Si 7.862988 9.149581 4.461524
Si 3.315272 8.682946 7.202164
Si 2.669297 2.789881 2.431256
Si 7.075661 5.474130 8.831364
Si 7.266670 4.775036 2.422383
Si 3.496337 6.067799 3.604139
Si 2.887358 8.564132 4.616867
Si 5.338662 7.972994 5.269623
Si 8.558299 3.652272 6.105584
Si 6.151362 0.469231 0.088757
Si 4.508388 5.972546 8.984218
Si 10.082868 6.941589 9.785664
Si 10.262748 4.915511 4.681807
Si 3.394630 1.394965 4.267216
Si 4.078602 3.112339 5.978198
Si 6.939688 1.118739 6.444786
Si 0.233497 8.556577 10.357808
Si 2.058939 5.949962 7.031444
Si 1.600422 5.821688 9.360321
Si 8.089991 1.220725 3.734259
Si 0.895477 10.499804 6.840930
Si 5.265307 8.647111 8.913522
Si 5.193149 3.884539 10.397407
Si 6.809855 9.551874 6.505973
Si 10.475417 8.806136 5.853170
Si 8.624981 9.819220 10.391243
Si 9.664584 6.477430 7.220423
Si 7.335977 3.217974 0.936671
Si 10.815350 0.156291 1.027874
Si 4.021489 10.242379 2.654461
Si 1.539483 1.399977 9.264345
Si 2.517692 7.836885 9.873016
Si 10.290143 10.089838 3.675450
Si 10.401622 10.555403 8.815892
Si 6.091945 10.850640 8.709534
Si 6.082350 7.998808 2.584272
Si 1.895056 6.886908 2.506635
Si 3.986960 0.809235 7.770192
Si 9.474371 2.229359 1.406371
Si 6.047999 2.914649 4.186632
Si 8.462401 3.299955 8.529927
Si 0.110904 3.760033 2.629639
Si 0.939407 1.286359 3.437026
Si 7.694862 6.715739 5.779537
Si 5.312233 1.947387 2.310217
Si 8.821457 6.050863 3.904966
Si 8.502812 7.663237 2.007681
Si 4.126060 9.972484 0.086548
Si 3.853570 7.654207 0.957260
64
Step 690
Si 10.278240 2.754612 9.743596
Si 6.402797 4.759275 6.277609
Si 2.391639 0.958449 0.814932
Si 3.487671 4.746852 1.251100
Si 1.839150 2.059610 6.916115
Si 7.381991 7.977972 9.043908
Si 0.631117 4.062966 0.290008
Si 5.768565 2.971720 8.210847
Si 3.957472 5.953781 6.186260
Si 0.845506 7.226175 5.223833
Si 6.305808 6.395646 0.464860
Si 10.187641 1.582271 5.530263
Si 6.911784 10.359753 2.205639
Si 0.351136 3.957834 7.101879
Si 10.813868 8.423270 2.079440
Si 7.949030 9.319236 4.512207
Si 3.364590 8.797662 7.178522
Si 2.600321 2.925937 2.303508
Si 7.160157 5.530551 8.871301
Si 7.316580 4.744012 2.578572
Si 3.585132 6.163369 3.708085
Si 2.809267 8.552581 4.609559
Si 5.291884 7.911791 5.106882
Si 8.555875 3.686939 5.996692
Si 6.078138 0.350820 0.040580
Si 4.444691 5.984712 9.019616
Si 10.060564 6.885919 9.686204
Si 10.492558 4.813989 4.668022
Si 3.430972 1.227078 4.242798
Si 4.112694 3.161841 5.828667
Si 7.088726 1.212723 6.395249
Si 0.436466 8.675860 10.365495
Si 1.970929 6.046509 7.269070
Si 1.521749 5.840181 9.476101
Si 8.086184 1.164663 3.655809
Si 0.827635 10.554525 6.728867
Si 5.323375 8.561165 8.901180
Si 5.219863 3.797137 10.459683
Si 6.904723 9.559404 6.586923
Si 10.508860 9.015172 5.963874
Si 8.568508 9.691079 10.459063
Si 9.776196 6.495108 7.369317
Si 7.398590 3.093620 0.782243
Si 10.731663 0.142109 1.095639
Si 4.072496 10.262396 2.633262
Si 1.367771 1.434919 9.243854
Si 2.442013 8.075728 9.963763
Si 10.241912 10.095903 3.714061
Si 10.386132 10.605308 8.784188
Si 6.133800 0.066614 8.657717
Si 5.908861 7.932619 2.507210
Si 1.714609 6.783735 2.504875
Si 3.916856 0.785102 7.885479
Si 9.397189 2.284960 1.480354
Si 6.082237 2.909246 4.206781
Si 8.511622 3.187338 8.452237
Si 0.075769 3.936363 2.792958
Si 0.891025 1.204875 3.662346
Si 7.565907 6.788059 5.864945
Si 5.350650 1.967756 2.097199
Si 8.687359 6.055903 3.810657
Si 8.529334 7.569133 2.177229
Si 4.119933 9.969951 10.849981
Si 3.880246 7.572219 1.094874
64
Step 700
Si 10.139852 2.644001 9.760057
Si 6.588624 4.848696 6.332885
Si 2.342918 1.021143 0.764818
Si 3.528575 4.768507 1.203443
Si 1.860055 1.981994 6.866270
Si 7.487508 8.041980 9.030692
Si 0.626265 3.988825 0.308318
Si 5.837852 2.991575 8.092814
Si 3.952647 5.898346 6.079820
Si 0.782364 7.109607 5.130031
Si 6.389762 6.362607 0.406778
Si 10.193735 1.455024 5.535057
Si 7.005717 10.384867 2.040497
Si 0.484713 4.019814 7.112570
Si 10.748589 8.170182 2.160804
Si 8.024410 9.464607 4.532249
Si 3.429995 8.919491 7.196648
Si 2.519940 3.032650 2.149719
Si 7.275904 5.582846 8.867089
Si 7.321959 4.696719 2.718695
Si 3.712689 6.183571 3.789126
Si 2.730919 8.583473 4.639703
Si 5.257704 7.891109 4.959152
Si 8.558633 3.667053 5.874945
Si 6.061949 0.253244 0.041939
Si 4.377656 6.031472 9.044557
Si 9.992329 6.759817 9.557159
Si 10.726535 4.760620 4.782533
Si 3.469658 1.074880 4.234507
Si 4.090764 3.191459 5.725196
Si 7.297570 1.393905 6.319967
Si 0.551380 8.951001 10.434989
Si 1.835344 6.149590 7.433059
Si 1.441820 5.812008 9.664655
Si 8.063341 1.166820 3.572379
Si 0.838793 10.675848 6.672538
Si 5.268948 8.434429 8.834470
Si 5.263017 3.760361 10.533028
Si 7.033715 9.541950 6.636699
Si 10.469877 9.123104 6.042899
Si 8.497107 9.584193 10.577180
Si 9.881146 6.475811 7.453092
Si 7.401758 2.996016 0.619313
Si 10.669247 0.166846 1.105612
Si 4.110377 10.279862 2.614115
Si 1.205173 1.487340 9.326868
Si 2.432227 8.274348 9.990964
Si 10.235983 10.096134 3.764234
Si 10.391022 10.633282 8.778670
Si 6.171829 0.183939 8.582330
Si 5.725204 7.891837 2.472204
Si 1.470525 6.698022 2.493563
Si 3.830727 0.720788 7.987226
Si 9.360540 2.309548 1.580027
Si 6.168610 2.885208 4.218319
Si 8.558288 3.075579 8.395954
Si 0.072938 4.052022 2.844793
Si 0.843327 1.147672 3.847676
Si 7.475855 6.852506 5.965303
Si 5.365133 1.935401 1.864650
Si 8.545660 6.031624 3.737116
Si 8.523310 7.540178 2.276729
Si 4.055033 10.002430 10.779383
Si 3.870979 7.474215 1.225912
64
Step 710
Si 10.042889 2.562101 9.784645
Si 6.711028 4.943148 6.395200
Si 2.274761 1.050104 0.740619
Si 3.526722 4.866474 1.162148
Si 1.905362 1.967683 6.779741
Si 7.626439 8.087235 9.058313
Si 0.671670 3.933160 0.299372
Si 5.887239 3.016927 7.979125
Si 3.943987 5.795286 6.089667
Si 0.714874 6.984591 5.057588
Si 6.476245 6.240971 0.351254
Si 10.119826 1.456559 5.600689
Si 7.110412 10.343640 1.902080
Si 0.554395 4.041345 7.134133
Si 10.655393 7.959807 2.241696
Si 8.039942 9.510884 4.530786
Si 3.435193 9.053645 7.212959
Si 2.440863 3.035019 2.041885
Si 7.359217 5.619373 8.874382
Si 7.210078 4.524185 2.742507
Si 3.791035 6.089949 3.773157
Si 2.662325 8.687545 4.706367
Si 5.309969 7.971298 4.849703
Si 8.638212 3.722103 5.743072
Si 6.084372 0.153379 10.850941
Si 4.335052 6.044720 9.039829
Si 9.961810 6.632371 9.479201
Si 0.023353 4.763206 5.039275
Si 3.473461 0.992347 4.206384
Si 4.045752 3.199357 5.649043
Si 7.488408 1.576479 6.288484
Si 0.492651 9.245188 10.548261
Si 1.785621 6.303541 7.552326
Si 1.348874 5.798252 9.922439
Si 8.043691 1.175606 3.449916
Si 0.929388 10.774173 6.686487
Si 5.201483 8.289640 8.730986
Si 5.321313 3.803685 10.563115
Si 7.150197 9.520229 6.685898
Si 10.408393 9.090781 6.120534
Si 8.438825 9.489396 10.704134
Si 9.964337 6.469565 7.423266
Si 7.397568 2.947481 0.443093
Si 10.674182 0.194836 1.109269
Si 4.130781 10.295352 2.571856
Si 1.088764 1.521838 9.462664
Si 2.548835 8.406950 9.961184
Si 10.255499 10.012469 3.725823
Si 10.397177 10.649189 8.805303
Si 6.190585 0.326855 8.483391
Si 5.592413 7.897678 2.428812
Si 1.268642 6.547560 2.475012
Si 3.779693 0.620743 8.127523
Si 9.374386 2.345322 1.743437
Si 6.268305 2.868702 4.194546
Si 8.587537 2.992518 8.346748
Si 0.066493 4.102564 2.754821
Si 0.907988 1.161591 3.903783
Si 7.417544 6.937323 6.039230
Si 5.323786 1.897863 1.710711
Si 8.509692 5.945667 3.823600
Si 8.466313 7.664341 2.282310
Si 3.925143 10.075644 10.725710
Si 3.807639 7.386569 1.335556
64
Step 720
Si 9.937785 2.527777 9.860346
Si 6.706181 4.993418 6.441876
Si 2.220490 1.062559 0.726388
Si 3.510931 4.967063 1.091869
Si 2.021877 1.997628 6.699318
Si 7.744096 8.135359 9.067947
Si 0.722043 3.896551 0.260724
Si 5.886354 3.077304 7.894932
Si 3.956487 5.649908 6.206111
Si 0.667993 6.914605 4.965774
Si 6.543812 6.112717 0.331261
Si 10.000239 1.494399 5.640578
Si 7.197811 10.235486 1.841100
Si 0.612832 3.953604 7.229041
Si 10.460963 7.900331 2.255162
Si 8.006977 9.512249 4.502521
Si 3.399521 9.180421 7.196739
Si 2.378977 2.930973 1.996657
Si 7.387898 5.531860 8.870295
Si 7.068718 4.342003 2.648469
Si 3.800576 5.951596 3.757810
Si 2.634879 8.818574 4.745530
Si 5.406707 8.123360 4.819614
Si 8.780570 3.849530 5.619300
Si 6.105203 0.090883 10.712243
Si 4.294808 6.042305 9.048292
Si 9.985151 6.553475 9.518990
Si 0.153745 4.746036 5.208195
Si 3.469155 0.992585 4.173473
Si 4.026701 3.182121 5.548351
Si 7.641382 1.631252 6.263165
Si 0.368333 9.472681 10.674855
Si 1.879569 6.495483 7.686332
Si 1.291397 5.820932 10.185602
Si 8.072858 1.175222 3.327377
Si 1.088273 10.796694 6.725210
Si 5.107018 8.187941 8.623632
Si 5.376895 3.915892 10.518969
Si 7.251809 9.506936 6.738633
Si 10.353909 8.961287 6.209407
Si 8.469531 9.378265 10.843572
Si 9.953224 6.546987 7.292585
Si 7.432341 2.894764 0.261926
Si 10.686363 0.234545 1.172115
Si 4.105609 10.283742 2.555452
Si 1.096760 1.551648 9.565206
Si 2.647039 8.483668 9.935283
Si 10.283659 9.906163 3.619934
Si 10.387766 10.597152 8.834480
Si 6.178423 0.422888 8.384847
Si 5.532216 7.959628 2.356539
Si 1.198697 6.297936 2.504187
Si 3.693553 0.520012 8.300027
Si 9.362488 2.393401 1.901558
Si 6.300448 2.888033 4.168558
Si 8.626937 2.990560 8.334560
Si 0.071080 4.141343 2.735354
Si 1.021551 1.242887 3.872404
Si 7.437337 7.066930 6.102775
Si 5.207818 1.856006 1.631802
Si 8.501425 5.900879 3.941968
Si 8.363032 7.810696 2.274614
Si 3.800049 10.173689 10.665076
Si 3.705754 7.311183 1.359073
64
Step 730
Si 9.885027 2.459147 10.065792
Si 6.621293 5.049013 6.463855
Si 2.211008 1.040793 0.718768
Si 3.459058 5.062631 0.972399
Si 2.129303 2.091820 6.657662
Si 7.820232 8.131916 9.045602
Si 0.744709 3.902141 0.210002
Si 5.848262 3.126282 7.827044
Si 3.993641 5.510783 6.364944
Si 0.690598 6.940047 4.865133
Si 6.591906 6.065544 0.424829
Si 9.902999 1.490556 5.613524
Si 7.204727 10.163901 1.799129
Si 0.669212 3.845971 7.366440
Si 10.353163 7.906931 2.241504
Si 7.957277 9.543553 4.509882
Si 3.342998 9.279516 7.205224
Si 2.387365 2.779040 1.988691
Si 7.382752 5.444426 8.850004
Si 6.981211 4.253840 2.457962
Si 3.751788 5.880674 3.795478
Si 2.652532 8.979169 4.777660
Si 5.441059 8.264561 4.815762
Si 8.930462 4.033371 5.478383
Si 6.073573 0.103001 10.581397
Si 4.260053 6.012630 9.095149
Si 10.034760 6.496786 9.659852
Si 0.260352 4.689724 5.338543
Si 3.449159 0.980358 4.121857
Si 4.071737 3.164615 5.449202
Si 7.706775 1.566806 6.244775
Si 0.264597 9.608039 10.783697
Si 2.018194 6.665929 7.791753
Si 1.278458 5.918093 10.415017
Si 8.137749 1.149646 3.293063
Si 1.243652 10.754149 6.748731
Si 5.065513 8.148722 8.486708
Si 5.417088 3.996275 10.412537
Si 7.337214 9.557249 6.828460
Si 10.320394 8.821706 6.270446
Si 8.603917 9.259546 0.061973
Si 9.900853 6.646586 7.167220
Si 7.452097 2.836966 0.090809
Si 10.679219 0.334818 1.310101
Si 4.065667 10.259520 2.532330
Si 1.230250 1.526222 9.571693
Si 2.686430 8.479693 9.936712
Si 10.364023 9.816180 3.497885
Si 10.375794 10.523445 8.865191
Si 6.128025 0.490080 8.280765
Si 5.475556 7.997659 2.248427
Si 1.247602 6.059740 2.498552
Si 3.598898 0.401813 8.481680
Si 9.346453 2.463449 2.043960
Si 6.295057 2.867671 4.184919
Si 8.610956 3.053497 8.244758
Si 0.054424 4.154691 2.766262
Si 1.100523 1.349479 3.797143
Si 7.502197 7.114596 6.145354
Si 5.053139 1.780995 1.577979
Si 8.509720 5.874389 4.034298
Si 8.130211 7.833716 2.257218
Si 3.703974 10.301155 10.619563
Si 3.577190 7.278745 1.332334
64
Step 740
Si 9.844710 2.353129 10.291816
Si 6.477567 5.064564 6.464608
Si 2.252829 0.928963 0.678838
Si 3.474381 5.059599 0.834785
Si 2.177658 2.211687 6.637139
Si 7.878557 8.111483 9.010525
Si 0.721301 3.915621 0.169791
Si 5.790217 3.111062 7.771654
Si 4.040619 5.382078 6.503514
Si 0.700667 7.048136 4.744493
Si 6.655350 6.080615 0.597467
Si 9.937995 1.471605 5.520116
Si 7.122309 10.158121 1.750993
Si 0.761756 3.701835 7.511806
Si 10.309836 7.889075 2.247999
Si 7.955278 9.589949 4.514113
Si 3.315099 9.295861 7.241009
Si 2.453717 2.684928 2.017488
Si 7.450047 5.390996 8.860719
Si 6.931077 4.214987 2.207099
Si 3.780309 5.851693 3.876564
Si 2.707072 9.149924 4.777038
Si 5.363605 8.358342 4.801757
Si 9.022217 4.212264 5.334628
Si 6.018662 0.167340 10.496085
Si 4.211969 5.972169 9.131990
Si 10.065098 6.478664 9.789240
Si 0.364788 4.610211 5.464176
Si 3.439226 0.946650 4.054939
Si 4.148744 3.166714 5.344865
Si 7.665862 1.481354 6.249087
Si 0.200793 9.573661 0.007612
Si 2.110804 6.822323 7.867333
Si 1.297753 6.085429 10.579409
Si 8.186153 1.099278 3.341283
Si 1.274232 10.696961 6.718774
Si 5.096235 8.151958 8.309868
Si 5.413163 3.992251 10.301118
Si 7.397913 9.633332 6.977851
Si 10.286437 8.765827 6.268581
Si 8.748047 9.142137 0.086778
Si 9.837516 6.723920 7.116907
Si 7.420477 2.757931 10.827179
Si 10.671408 0.516327 1.536888
Si 4.035936 10.215794 2.487399
Si 1.377430 1.482320 9.468127
Si 2.658007 8.377035 9.975196
Si 10.488659 9.787294 3.458249
Si 10.363563 10.478506 8.818795
Si 6.064501 0.568273 8.178219
Si 5.401204 8.041951 2.147881
Si 1.283347 5.898305 2.478188
Si 3.524604 0.348519 8.593991
Si 9.327266 2.556301 2.184258
Si 6.336135 2.792192 4.212716
Si 8.635197 3.170844 8.106308
Si 10.855656 4.096706 2.816121
Si 1.065187 1.451184 3.810776
Si 7.578564 7.139762 6.157384
Si 4.954250 1.734084 1.532766
Si 8.518161 5.878244 4.044796
Si 7.876191 7.702458 2.278994
Si 3.658472 10.472017 10.670424
Si 3.464238 7.371257 1.327477
64
Step 750
Si 9.837939 2.232885 10.510139
Si 6.335701 5.080507 6.443804
Si 2.170221 0.857730 0.646327
Si 3.562429 4.999340 0.723693
Si 2.194915 2.265526 6.579358
Si 7.917308 8.049404 8.974695
Si 0.692952 3.904910 0.121492
Si 5.714881 3.072218 7.727954
Si 4.085301 5.295740 6.589078
Si 0.679794 7.201032 4.644641
Si 6.695548 6.097992 0.774192
Si 10.049345 1.481497 5.424533
Si 7.010369 10.225209 1.711913
Si 0.828641 3.515305 7.671767
Si 10.282450 7.817880 2.245945
Si 7.992288 9.639127 4.503484
Si 3.332837 9.234267 7.296309
Si 2.531083 2.637682 2.016649
Si 7.584297 5.384628 8.905608
Si 6.920832 4.156949 1.976188
Si 3.846359 5.881468 3.977585
Si 2.790487 9.284737 4.738590
Si 5.251489 8.411783 4.758728
Si 9.061199 4.300164 5.221499
Si 6.005326 0.304064 10.399460
Si 4.175640 5.940033 9.146430
Si 10.041481 6.484037 9.829468
Si 0.439137 4.573675 5.603243
Si 3.435197 0.944674 4.060643
Si 4.247216 3.136416 5.218206
Si 7.603369 1.422146 6.269478
Si 0.164922 9.512211 0.114543
Si 2.098151 6.974344 7.934396
Si 1.339405 6.273559 10.672332
Si 8.207331 1.010621 3.416701
Si 1.172184 10.669143 6.626747
Si 5.165330 8.166826 8.101895
Si 5.385529 3.927378 10.191830
Si 7.426602 9.670087 7.139195
Si 10.256654 8.818383 6.188826
Si 8.852417 8.990734 0.083140
Si 9.795580 6.720568 7.130795
Si 7.343302 2.638183 10.706494
Si 10.670395 0.678824 1.757604
Si 4.030027 10.123064 2.481730
Si 1.483604 1.499617 9.304337
Si 2.618358 8.253560 10.061591
Si 10.597987 9.828446 3.514824
Si 10.379379 10.463726 8.726281
Si 5.989464 0.688661 8.117722
Si 5.298494 8.083173 2.112044
Si 1.304743 5.815017 2.526148
Si 3.492408 0.368252 8.549937
Si 9.272115 2.657576 2.311504
Si 6.441365 2.734285 4.239822
Si 8.720036 3.272360 7.952591
Si 10.796141 3.993394 2.880674
Si 0.954935 1.552900 3.914815
Si 7.618628 7.169636 6.133154
Si 4.970928 1.751658 1.513286
Si 8.523364 5.920722 3.951478
Si 7.691639 7.504001 2.352551
Si 3.704466 10.537822 10.794929
Si 3.364110 7.482250 1.368974
64
Step 760
Si 9.836933 2.098207 10.656006
Si 6.336683 5.097340 6.414097
Si 1.910235 0.809249 0.623474
Si 3.611534 4.924627 0.681511
Si 2.252156 2.253498 6.480259
Si 7.926665 7.970511 8.943863
Si 0.705033 3.875935 0.078022
Si 5.646932 3.053434 7.659759
Si 4.046917 5.265533 6.658753
Si 0.733587 7.332604 4.559942
Si 6.728727 6.058423 0.863745
Si 10.126569 1.506167 5.369371
Si 6.910156 10.306838 1.672294
Si 0.820030 3.324352 7.804075
Si 10.252602 7.733183 2.231395
Si 8.012484 9.638054 4.493353
Si 3.314778 9.151140 7.351082
Si 2.628113 2.630060 1.982897
Si 7.710945 5.389875 8.986585
Si 6.930849 4.043198 1.810246
Si 3.837540 5.982177 4.080687
Si 2.835047 9.371841 4.710343
Si 5.193007 8.405362 4.726641
Si 9.041753 4.290429 5.201632
Si 6.041410 0.457729 10.311963
Si 4.115336 5.969148 9.109669
Si 10.034912 6.484111 9.842728
Si 0.470826 4.606391 5.802485
Si 3.446756 0.990865 4.087797
Si 4.353197 3.079535 5.081771
Si 7.566022 1.395539 6.257619
Si 0.217207 9.491239 0.195870
Si 2.022594 7.078353 7.981976
Si 1.302150 6.425561 10.669398
Si 8.194565 0.888788 3.510139
Si 1.011276 10.671116 6.541871
Si 5.304508 8.199038 7.916480
Si 5.399664 3.848792 10.037096
Si 7.437947 9.680492 7.285062
Si 10.240892 8.941803 6.103104
Si 8.874621 8.815280 0.082552
Si 9.816543 6.665238 7.142181
Si 7.287014 2.500450 10.620425
Si 10.724569 0.783096 1.908541
Si 4.059551 10.044691 2.480360
Si 1.490110 1.556127 9.193903
Si 2.602352 8.230970 10.131042
Si 10.678811 9.859988 3.641152
Si 10.442612 10.485138 8.644597
Si 5.886841 0.795775 8.095076
Si 5.236141 8.142184 2.168363
Si 1.404355 5.769757 2.605578
Si 3.467293 0.370609 8.407461
Si 9.102321 2.712768 2.367754
Si 6.530688 2.719739 4.263146
Si 8.830304 3.354191 7.781609
Si 10.840605 4.002977 2.956722
Si 0.882224 1.678669 4.071111
Si 7.555963 7.173494 6.035747
Si 5.083638 1.866258 1.566208
Si 8.519101 5.999521 3.820486
Si 7.576795 7.353219 2.464556
Si 3.831340 10.497516 0.022548
Si 3.213693 7.485811 1.475810
64
Step 770
Si 9.825578 1.955439 10.745670
Si 6.471731 5.118602 6.354196
Si 1.636049 0.784807 0.570801
Si 3.582159 4.835039 0.685291
Si 2.410502 2.240408 6.320310
Si 7.901652 7.934531 8.894737
Si 0.764768 3.863108 0.068544
Si 5.588633 3.050471 7.553174
Si 3.929088 5.267623 6.692666
Si 0.814196 7.410748 4.561796
Si 6.736510 5.917551 0.896733
Si 10.006571 1.546992 5.458238
Si 6.851602 10.374283 1.636274
Si 0.732637 3.177965 7.955685
Si 10.251038 7.664654 2.188202
Si 7.979754 9.569210 4.497929
Si 3.262224 9.078057 7.382858
Si 2.743913 2.619943 1.920088
Si 7.797420 5.331407 9.058596
Si 6.964762 3.894626 1.746581
Si 3.834291 6.072413 4.224571
Si 2.798881 9.446780 4.732081
Si 5.194189 8.318404 4.771647
Si 8.976104 4.214740 5.232922
Si 6.116987 0.578438 10.272721
Si 4.048649 6.026137 9.049856
Si 10.036539 6.420565 9.876179
Si 0.475083 4.752340 5.963295
Si 3.451093 1.066402 4.083467
Si 4.445368 3.046808 4.956973
Si 7.578898 1.381567 6.257621
Si 0.342023 9.502335 0.259195
Si 1.942399 7.135467 7.920553
Si 1.190307 6.476634 10.670448
Si 8.147625 0.739813 3.564756
Si 0.872886 10.684411 6.495503
Si 5.480704 8.227953 7.701741
Si 5.459071 3.811029 9.877807
Si 7.439784 9.722128 7.383732
Si 10.177439 9.055401 6.039211
Si 8.817305 8.648235 0.104731
Si 9.898398 6.589154 7.129179
Si 7.266780 2.379307 10.510738
Si 10.807378 0.811413 1.988889
Si 4.088591 10.061379 2.462002
Si 1.445843 1.564996 9.186032
Si 2.605353 8.338907 10.187810
Si 10.779201 9.866813 3.731598
Si 10.552424 10.555468 8.659174
Si 5.740497 0.834389 8.064235
Si 5.227426 8.203276 2.232849
Si 1.569913 5.729492 2.671474
Si 3.424548 0.375636 8.211725
Si 8.852169 2.806918 2.384267
Si 6.609929 2.776438 4.280737
Si 8.944915 3.417983 7.597345
Si 0.082849 4.052201 3.057584
Si 0.990597 1.854157 4.103448
Si 7.461797 7.164700 5.883880
Si 5.203082 2.025843 1.696718
Si 8.486543 5.997950 3.752778
Si 7.457761 7.358264 2.553941
Si 3.951161 10.459542 0.083399
Si 3.060453 7.396313 1.664811
64
Step 780
Si 9.786280 1.845037 10.791803
Si 6.630488 5.117706 6.344790
Si 1.475939 0.784201 0.497881
Si 3.528407 4.754664 0.666039
Si 2.545819 2.265231 6.200202
Si 7.890712 7.881628 8.853140
Si 0.843916 3.844865 0.076183
Si 5.500498 3.096119 7.491721
Si 3.803134 5.323532 6.720231
Si 0.919700 7.384945 4.629214
Si 6.727959 5.722512 0.849999
Si 9.846602 1.605291 5.553606
Si 6.873482 10.429611 1.603004
Si 0.593897 3.083633 8.097547
Si 10.314797 7.626397 2.182547
Si 7.891556 9.432334 4.547754
Si 3.191848 9.032063 7.355675
Si 2.841005 2.626276 1.842732
Si 7.828431 5.208798 9.096113
Si 6.997873 3.777002 1.730467
Si 3.841839 6.129576 4.418206
Si 2.721212 9.513907 4.813788
Si 5.205041 8.200488 4.896051
Si 8.867520 4.136007 5.217427
Si 6.165306 0.588059 10.289081
Si 4.004043 6.094107 8.991688
Si 9.985714 6.313971 9.823868
Si 0.523569 4.929630 6.050767
Si 3.497685 1.119298 4.020475
Si 4.522959 3.077093 4.834849
Si 7.587805 1.346379 6.282878
Si 0.461046 9.449568 0.336924
Si 1.818232 7.136608 7.804241
Si 1.086448 6.461215 10.715759
Si 8.117775 0.580137 3.558690
Si 0.785476 10.700089 6.478209
Si 5.548496 8.188672 7.440839
Si 5.537172 3.830651 9.676403
Si 7.498333 9.812833 7.401240
Si 10.051861 9.099380 6.051435
Si 8.704246 8.537692 0.182852
Si 10.018660 6.548438 7.088482
Si 7.320028 2.314928 10.382750
Si 10.836849 0.814364 2.093338
Si 4.129749 10.159958 2.390483
Si 1.385138 1.530613 9.246084
Si 2.636248 8.508315 10.255721
Si 0.037438 9.888894 3.739255
Si 10.654631 10.652558 8.689225
Si 5.585564 0.816204 7.970985
Si 5.224539 8.275891 2.276177
Si 1.745369 5.736508 2.746331
Si 3.373982 0.396030 8.018285
Si 8.692439 2.909544 2.410714
Si 6.698454 2.864194 4.313495
Si 9.039074 3.508281 7.461209
Si 0.186672 4.103530 3.185204
Si 1.094868 2.076602 4.108905
Si 7.406581 7.150050 5.714318
Si 5.291228 2.115116 1.895874
Si 8.488402 5.928320 3.710962
Si 7.321951 7.460055 2.610474
Si 4.043993 10.456188 0.133728
Si 2.946045 7.282222 1.863667
64
Step 790
Si 9.678217 1.769961 10.806028
Si 6.760930 5.042925 6.417111
Si 1.465197 0.804125 0.454690
Si 3.483442 4.701467 0.595284
Si 2.614632 2.319312 6.226473
Si 7.908549 7.784976 8.761430
Si 0.928953 3.826449 0.093778
Si 5.354586 3.127028 7.415982
Si 3.681745 5.312878 6.694416
Si 1.072119 7.323767 4.706317
Si 6.681098 5.641946 0.690488
Si 9.769887 1.620860 5.625977
Si 6.973932 10.511673 1.555783
Si 0.455479 3.010596 8.217035
Si 10.395565 7.554658 2.231757
Si 7.796229 9.255374 4.622018
Si 3.114301 8.984158 7.346385
Si 2.936839 2.655935 1.714010
Si 7.828233 5.066277 9.090224
Si 6.988097 3.724927 1.629250
Si 3.821636 6.161594 4.619300
Si 2.628717 9.550325 4.916258
Si 5.168581 8.093023 4.994512
Si 8.781931 4.104858 5.141809
Si 6.163867 0.519500 10.353443
Si 3.976335 6.207244 8.973235
Si 9.908937 6.222948 9.737466
Si 0.638426 5.065773 6.075759
Si 3.588737 1.123609 3.942905
Si 4.575525 3.193417 4.720265
Si 7.538616 1.289184 6.344643
Si 0.537757 9.319426 0.368865
Si 1.663775 7.101340 7.696755
Si 0.988016 6.417767 10.766256
Si 8.130625 0.434292 3.489657
Si 0.738354 10.761461 6.445804
Si 5.494691 8.138852 7.245436
Si 5.626323 3.902001 9.507421
Si 7.634735 9.918607 7.372217
Si 9.877935 9.087798 6.110124
Si 8.564353 8.403668 0.329745
Si 10.065686 6.562767 7.091453
Si 7.420720 2.302815 10.276663
Si 10.774167 0.876977 2.286187
Si 4.185028 10.246029 2.314722
Si 1.343039 1.506982 9.325309
Si 2.717023 8.662428 10.277661
Si 0.132016 9.904643 3.713147
Si 10.716242 10.747155 8.714905
Si 5.435600 0.833662 7.858833
Si 5.178738 8.362861 2.335859
Si 1.867214 5.715163 2.874210
Si 3.305294 0.448512 7.837824
Si 8.802905 2.884141 2.458103
Si 6.766567 2.926934 4.462979
Si 9.124066 3.656274 7.407710
Si 0.243334 4.131830 3.316839
Si 1.098027 2.306821 4.101528
Si 7.451256 7.155220 5.601881
Si 5.319653 2.106073 2.084102
Si 8.595182 5.831701 3.627040
Si 7.215623 7.600812 2.566093
Si 4.077010 10.484009 0.114916
Si 2.951733 7.274217 2.027712
64
Step 800
Si 9.537820 1.722626 10.834825
Si 6.800550 5.010590 6.561219
Si 1.529773 0.812993 0.559851
Si 3.458153 4.715149 0.479968
Si 2.607842 2.415484 6.360113
Si 7.894855 7.708077 8.609641
Si 0.981919 3.850449 0.112844
Si 5.184955 3.116945 7.299362
Si 3.529603 5.198369 6.670543
Si 1.209715 7.275790 4.833279
Si 6.636064 5.646637 0.508159
Si 9.747054 1.604296 5.666520
Si 7.138325 10.561438 1.514805
Si 0.412002 2.986834 8.224629
Si 10.467331 7.477370 2.315903
Si 7.726991 9.143792 4.643616
Si 3.052536 8.945208 7.400045
Si 3.009667 2.683924 1.591522
Si 7.819268 4.922062 9.111557
Si 6.938922 3.637207 1.454210
Si 3.793169 6.196205 4.780240
Si 2.520883 9.600803 4.984542
Si 5.045234 7.991494 4.985852
Si 8.782556 4.073374 5.025048
Si 6.148613 0.458616 10.402127
Si 3.927237 6.306707 9.049757
Si 9.820214 6.138210 9.673984
Si 0.784827 5.111419 6.077015
Si 3.644478 1.034584 3.882574
Si 4.570854 3.388413 4.641180
Si 7.463362 1.218336 6.412025
Si 0.570035 9.162192 0.322345
Si 1.570974 7.102227 7.617453
Si 0.959187 6.413779 10.804667
Si 8.180962 0.311640 3.437703
Si 0.675463 10.852728 6.394562
Si 5.400853 8.120812 7.176294
Si 5.655291 4.017899 9.412708
Si 7.779899 10.034079 7.355254
Si 9.748765 9.023652 6.164153
Si 8.455892 8.262179 0.505291
Si 10.028164 6.639796 7.132967
Si 7.497547 2.321878 10.175914
Si 10.676883 0.926225 2.514536
Si 4.220377 10.331674 2.278859
Si 1.391633 1.525327 9.304802
Si 2.816041 8.716076 10.272671
Si 0.200861 9.898696 3.702250
Si 10.695520 10.763659 8.730059
Si 5.312216 0.896026 7.787552
Si 5.072263 8.393820 2.437382
Si 1.951724 5.656686 3.012585
Si 3.192762 0.524166 7.675141
Si 9.055706 2.802113 2.524886
Si 6.848886 2.909555 4.614703
Si 9.227271 3.808770 7.380963
Si 0.192370 4.234860 3.444710
Si 1.123953 2.423519 4.125911
Si 7.585894 7.089713 5.577446
Si 5.356100 2.106897 2.227569
Si 8.765417 5.765464 3.469504
Si 7.187350 7.723076 2.421399
Si 4.046441 10.521453 0.015955
Si 3.094547 7.349967 2.036834
64
Step 810
Si 9.556051 1.654411 0.010137
Si 6.727574 5.054459 6.704341
Si 1.566396 0.836684 0.719893
Si 3.436950 4.795055 0.312655
Si 2.511603 2.537153 6.453990
Si 7.814333 7.701004 8.423923
Si 0.970153 3.839148 0.089300
Si 5.048942 3.159598 7.184850
Si 3.365204 5.057419 6.760191
Si 1.291749 7.319801 4.942645
Si 6.605513 5.733234 0.358231
Si 9.748661 1.493972 5.671601
Si 7.251286 10.586070 1.465705
Si 0.427946 3.016832 8.191223
Si 10.597899 7.380005 2.383850
Si 7.671935 9.114111 4.534988
Si 3.019477 8.918492 7.522906
Si 3.075302 2.704286 1.527142
Si 7.817211 4.791149 9.167435
Si 6.930228 3.483295 1.306623
Si 3.745051 6.177703 4.845858
Si 2.430034 9.652689 5.007811
Si 4.927300 7.985451 4.951725
Si 8.832840 4.028031 4.936583
Si 6.147075 0.412916 10.462541
Si 3.850399 6.388226 9.166101
Si 9.725356 6.095130 9.651523
Si 0.911755 5.015878 6.121749
Si 3.633968 0.924941 3.895864
Si 4.541733 3.615065 4.559498
Si 7.404017 1.172534 6.466990
Si 0.529627 9.048607 0.228762
Si 1.561588 7.139348 7.629360
Si 0.993895 6.464189 0.020130
Si 8.268763 0.218932 3.486353
Si 0.558066 0.104707 6.378177
Si 5.316652 8.100549 7.174003
Si 5.591355 4.168241 9.347218
Si 7.888733 10.088322 7.398270
Si 9.710428 8.972244 6.188665
Si 8.426605 8.063476 0.618602
Si 9.948185 6.742332 7.151642
Si 7.495143 2.365464 10.073225
Si 10.595101 0.981269 2.700818
Si 4.247728 10.434996 2.226029
Si 1.455789 1.547879 9.277330
Si 2.894045 8.621618 10.227015
Si 0.233057 9.840514 3.732794
Si 10.622504 10.728723 8.788438
Si 5.252474 0.934505 7.722360
Si 4.963531 8.390855 2.548204
Si 2.034202 5.599561 3.087790
Si 3.044165 0.537705 7.548723
Si 9.250339 2.746404 2.538477
Si 6.905090 2.798899 4.690568
Si 9.394524 3.957791 7.375143
Si 0.104800 4.402957 3.498664
Si 1.267316 2.424466 4.214470
Si 7.719544 6.952760 5.633099
Si 5.487229 2.121069 2.314528
Si 8.923207 5.795687 3.255941
Si 7.205580 7.805234 2.272571
Si 4.027817 10.569239 10.799792
Si 3.220999 7.408720 1.914955
64
Step 820
Si 9.716837 1.590235 0.002700
Si 6.674931 5.114342 6.781465
Si 1.523327 0.858024 0.884881
Si 3.409424 4.932309 0.156806
Si 2.366364 2.608362 6.452282
Si 7.669419 7.737967 8.261362
Si 0.898042 3.819276 0.046321
Si 4.983871 3.212857 7.098373
Si 3.194981 4.986297 6.966687
Si 1.316848 7.465280 5.010290
Si 6.560194 5.853202 0.269806
Si 9.752649 1.433577 5.659335
Si 7.335707 10.604083 1.421323
Si 0.483129 3.064645 8.222417
Si 10.772822 7.297638 2.418214
Si 7.586181 9.075473 4.421198
Si 3.036165 8.954553 7.649971
Si 3.132614 2.692090 1.580869
Si 7.885036 4.700946 9.199448
Si 6.971811 3.344175 1.191850
Si 3.696128 6.051130 4.846350
Si 2.429236 9.693666 5.043468
Si 4.863917 8.093229 4.921935
Si 8.848556 3.958576 4.910272
Si 6.171656 0.413596 10.442034
Si 3.787995 6.452037 9.265372
Si 9.633170 6.072658 9.709908
Si 0.995012 4.852597 6.159002
Si 3.531418 0.915183 3.992011
Si 4.486403 3.808933 4.410243
Si 7.362871 1.101276 6.503671
Si 0.429904 9.013411 0.111516
Si 1.564449 7.198605 7.758183
Si 1.054270 6.478899 0.103526
Si 8.313292 0.138634 3.592313
Si 0.427823 0.188475 6.352925
Si 5.223410 8.097795 7.253682
Si 5.425928 4.346715 9.297245
Si 8.007356 10.112053 7.460330
Si 9.756457 8.948304 6.151933
Si 8.545574 7.842239 0.553333
Si 9.859620 6.849596 7.178419
Si 7.486967 2.344125 10.042574
Si 10.602272 1.004156 2.856167
Si 4.316787 10.514736 2.138403
Si 1.456012 1.531897 9.286252
Si 2.994546 8.493977 10.176011
Si 0.210971 9.743249 3.768866
Si 10.513289 10.697435 8.917956
Si 5.234479 0.950556 7.654232
Si 4.893191 8.402094 2.671486
Si 2.117097 5.578120 3.072465
Si 2.928425 0.455156 7.441918
Si 9.344436 2.743820 2.440730
Si 6.936904 2.645901 4.786825
Si 9.548977 4.086636 7.336584
Si 0.120372 4.539533 3.539716
Si 1.491092 2.381433 4.288986
Si 7.796918 6.760620 5.675924
Si 5.639023 2.144790 2.367595
Si 8.989605 5.953478 3.014539
Si 7.188181 7.843522 2.269760
Si 3.985053 10.586556 10.724052
Si 3.242629 7.347276 1.675677
64
Step 830
Si 9.881909 1.548713 10.860085
Si 6.663941 5.141576 6.829603
Si 1.453015 0.842667 1.040025
Si 3.379114 5.035190 0.094669
Si 2.233151 2.608400 6.411564
Si 7.472179 7.773288 8.146577
Si 0.814860 3.805959 0.050471
Si 4.974922 3.216428 7.000706
Si 3.064635 5.009784 7.226248
Si 1.289397 7.598032 5.110800
Si 6.504273 5.935517 0.223336
Si 9.724378 1.539532 5.589588
Si 7.396261 10.581495 1.446241
Si 0.510481 3.152617 8.248040
Si 0.080907 7.299607 2.382186
Si 7.492849 8.959642 4.337828
Si 3.080744 9.038943 7.720306
Si 3.204733 2.683437 1.716378
Si 7.968791 4.634069 9.212711
Si 7.073936 3.257362 1.099074
Si 3.682620 5.951285 4.841485
Si 2.505074 9.732935 5.102393
Si 4.781302 8.191223 4.956621
Si 8.821797 3.906020 4.893632
Si 6.217231 0.451256 10.315201
Si 3.749818 6.508946 9.287635
Si 9.557075 6.102480 9.807865
Si 1.010845 4.779446 6.108514
Si 3.418128 0.991630 4.071643
Si 4.456766 3.921461 4.229594
Si 7.279577 0.988295 6.580731
Si 0.310749 9.045883 0.004551
Si 1.507068 7.260486 7.870933
Si 1.048101 6.439214 0.185589
Si 8.302560 0.081669 3.673682
Si 0.351589 0.154771 6.346067
Si 5.125435 8.077388 7.332091
Si 5.230087 4.508236 9.248451
Si 8.170430 10.086790 7.529181
Si 9.818674 8.943059 6.093286
Si 8.753051 7.636025 0.419152
Si 9.869426 6.947644 7.216332
Si 7.498866 2.265758 10.054060
Si 10.702461 1.007128 2.997992
Si 4.418678 10.597216 2.077085
Si 1.499654 1.381671 9.379498
Si 3.102347 8.443461 10.201007
Si 0.140939 9.656996 3.764450
Si 10.375067 10.644147 9.065166
Si 5.225654 1.001816 7.559974
Si 4.831618 8.404150 2.754111
Si 2.260721 5.569555 3.009740
Si 2.857836 0.338976 7.352232
Si 9.389555 2.785465 2.306548
Si 6.901576 2.519744 4.882086
Si 9.634874 4.226027 7.276368
Si 0.188705 4.634294 3.612431
Si 1.692552 2.319462 4.312389
Si 7.866505 6.561705 5.605342
Si 5.730869 2.166164 2.452524
Si 8.975956 6.143693 2.802347
Si 7.153332 7.884927 2.299517
Si 3.918469 10.564344 10.676615
Si 3.261909 7.236902 1.419439
64
Step 840
Si 9.962433 1.536655 0.016903
Si 6.709040 5.131888 6.902785
Si 1.451334 0.802345 1.181148
Si 3.356523 4.988481 0.160453
Si 2.092990 2.549648 6.431733
Si 7.251249 7.820290 8.018736
Si 0.745040 3.751490 0.056090
Si 4.966600 3.232470 6.839479
Si 2.966690 5.104222 7.487433
Si 1.283553 7.629453 5.214080
Si 6.445698 5.970706 0.190661
Si 9.699020 1.715311 5.486399
Si 7.370340 10.582600 1.495585
Si 0.556727 3.190274 8.333070
Si 0.244003 7.395520 2.346915
Si 7.414218 8.767896 4.336477
Si 3.089836 9.110361 7.776998
Si 3.276117 2.688871 1.872835
Si 8.027418 4.558944 9.198223
Si 7.189180 3.208413 1.061650
Si 3.641421 5.928026 4.869929
Si 2.628447 9.762453 5.121367
Si 4.665930 8.253712 5.055843
Si 8.770649 3.893168 4.844734
Si 6.240165 0.458599 10.191612
Si 3.768416 6.591578 9.207913
Si 9.542165 6.144361 9.880481
Si 0.969913 4.851284 5.970917
Si 3.387888 1.045400 4.104952
Si 4.462021 3.877554 4.040866
Si 7.227174 0.812151 6.683846
Si 0.199483 9.104159 10.758478
Si 1.378860 7.315702 7.910072
Si 0.888899 6.368610 0.236791
Si 8.261032 0.094593 3.741419
Si 0.329456 0.082121 6.388750
Si 5.091327 8.043229 7.381698
Si 5.120537 4.588899 9.211831
Si 8.346652 10.018973 7.616536
Si 9.845012 8.976894 6.027828
Si 8.967532 7.510128 0.281973
Si 9.917662 7.025247 7.274041
Si 7.545070 2.210280 10.067840
Si 10.843161 1.015447 3.141001
Si 4.543481 10.683670 2.031750
Si 1.605811 1.203796 9.451504
Si 3.177540 8.507364 10.304894
Si 0.051594 9.586466 3.732467
Si 10.202132 10.554472 9.167405
Si 5.187788 1.033935 7.485215
Si 4.766980 8.410285 2.734355
Si 2.438879 5.567351 2.939354
Si 2.810783 0.335661 7.301697
Si 9.409928 2.847023 2.142008
Si 6.795514 2.421655 4.936109
Si 9.637169 4.385910 7.214753
Si 0.267602 4.693582 3.721482
Si 1.813534 2.273111 4.272567
Si 7.989649 6.397407 5.405578
Si 5.815115 2.149317 2.531581
Si 8.940742 6.280482 2.694408
Si 7.059086 7.943663 2.296767
Si 3.874723 10.560146 10.666946
Si 3.335088 7.178298 1.272776
64
Step 850
Si 10.003696 1.489981 10.854423
Si 6.767507 5.163769 7.006618
Si 1.510133 0.768097 1.284537
Si 3.305377 4.790867 0.310028
Si 1.949415 2.491942 6.533301
Si 7.100848 7.862161 7.830277
Si 0.681602 3.659579 0.073005
Si 4.906332 3.266851 6.640340
Si 2.873808 5.178618 7.671902
Si 1.316142 7.604006 5.280084
Si 6.421360 5.965400 0.174649
Si 9.693203 1.876092 5.353880
Si 7.302476 10.607232 1.556914
Si 0.596523 3.208681 8.486623
Si 0.433559 7.495432 2.347755
Si 7.368936 8.556089 4.413928
Si 3.061758 9.115346 7.871053
Si 3.325753 2.710752 1.949972
Si 8.015288 4.438208 9.163351
Si 7.292565 3.261068 1.088918
Si 3.559927 5.928722 4.957608
Si 2.772131 9.777993 5.052740
Si 4.558768 8.304968 5.141111
Si 8.696279 3.863143 4.730952
Si 6.241113 0.454564 10.043663
Si 3.810207 6.719087 9.052958
Si 9.642966 6.024612 9.820691
Si 0.948612 4.993342 5.802215
Si 3.470073 0.942898 4.138836
Si 4.522036 3.765845 3.917142
Si 7.184768 0.652105 6.764298
Si 0.138332 9.158158 10.700073
Si 1.208922 7.381447 7.956022
Si 0.725040 6.263877 0.212459
Si 8.180228 0.146259 3.780352
Si 0.312403 0.029449 6.514819
Si 5.103301 8.000913 7.379540
Si 5.137256 4.581631 9.196667
Si 8.501754 9.886554 7.738311
Si 9.834578 8.989399 5.978999
Si 9.025759 7.668260 0.300317
Si 9.917708 7.089161 7.364614
Si 7.600932 2.116623 10.087617
Si 0.110186 1.037865 3.215642
Si 4.646179 10.778885 1.989379
Si 1.739575 0.989524 9.511148
Si 3.181635 8.662184 10.439961
Si 10.814574 9.537659 3.672983
Si 10.015712 10.497573 9.236449
Si 5.154986 1.032122 7.456297
Si 4.694174 8.422596 2.680755
Si 2.554280 5.601609 2.826199
Si 2.782563 0.509801 7.266186
Si 9.436831 3.002645 2.031890
Si 6.737841 2.298422 4.974419
Si 9.641820 4.517856 7.122399
Si 0.298760 4.723364 3.794444
Si 1.771123 2.312984 4.196451
Si 8.133146 6.299449 5.183055
Si 5.925893 2.095583 2.585477
Si 8.934936 6.323548 2.690392
Si 6.925074 8.006539 2.205519
Si 3.871642 10.645386 10.706845
Si 3.469716 7.177225 1.274537
64
Step 860
Si 10.031471 1.421311 10.773832
Si 6.799669 5.200353 7.101668
Si 1.561676 0.731576 1.346148
Si 3.238975 4.538748 0.437030
Si 1.806734 2.498452 6.662112
Si 7.195306 7.861428 7.601084
Si 0.624020 3.541932 0.129128
Si 4.807790 3.331709 6.455951
Si 2.728710 5.158354 7.753382
Si 1.393421 7.603337 5.331295
Si 6.451427 5.973029 0.149765
Si 9.720305 1.958000 5.225661
Si 7.208396 10.590050 1.596991
Si 0.670022 3.216130 8.644733
Si 0.615831 7.615083 2.331167
Si 7.347862 8.373941 4.564146
Si 2.953700 9.192077 7.974440
Si 3.304928 2.778524 1.927000
Si 8.003334 4.341577 9.159009
Si 7.362369 3.325825 1.172743
Si 3.484202 5.931353 5.078748
Si 2.851202 9.769292 4.979474
Si 4.504779 8.358546 5.083839
Si 8.629347 3.811829 4.556527
Si 6.215137 0.449332 9.928370
Si 3.908898 6.801630 8.984186
Si 9.707566 5.837866 9.692372
Si 0.945260 5.159794 5.734042
Si 3.613136 0.742059 4.147418
Si 4.547447 3.692841 3.843272
Si 7.154055 0.522256 6.790439
Si 0.127818 9.139951 10.702187
Si 1.063585 7.467814 8.015886
Si 0.682505 6.173141 0.153815
Si 8.133889 0.198307 3.827958
Si 0.283422 0.001550 6.624842
Si 5.033257 7.998081 7.316412
Si 5.182421 4.540469 9.200636
Si 8.546552 9.739764 7.852522
Si 9.764364 8.963570 5.949754
Si 8.982667 7.906307 0.381493
Si 9.819849 7.115142 7.479113
Si 7.695357 2.033406 10.134842
Si 0.199278 1.045071 3.277227
Si 4.734815 10.813608 1.999735
Si 1.854904 0.767903 9.595240
Si 3.083188 8.740422 10.537398
Si 10.716726 9.553175 3.571348
Si 9.911950 10.500365 9.359793
Si 5.113292 1.009534 7.482132
Si 4.603967 8.481095 2.675431
Si 2.628798 5.631312 2.719089
Si 2.812770 0.683050 7.234104
Si 9.485476 3.195611 1.978923
Si 6.738542 2.143851 5.046375
Si 9.686349 4.628215 7.019191
Si 0.252287 4.693442 3.717384
Si 1.656211 2.450711 4.163886
Si 8.265628 6.289650 5.017300
Si 6.106884 2.034623 2.573291
Si 8.975926 6.348278 2.716354
Si 6.803588 8.044693 2.048590
Si 3.934868 0.019810 10.734982
Si 3.591918 7.179843 1.320782
64
Step 870
Si 10.012088 1.378908 10.670190
Si 6.798204 5.257004 7.150022
Si 1.597901 0.694535 1.407675
Si 3.130055 4.318840 0.483833
Si 1.633406 2.578031 6.767297
Si 7.318647 7.780232 7.346555
Si 0.602815 3.440772 0.200193
Si 4.680463 3.482715 6.322240
Si 2.565072 5.059919 7.793577
Si 1.452320 7.666733 5.314379
Si 6.546632 5.966977 0.091571
Si 9.790092 1.951478 5.156791
Si 7.141089 10.541341 1.588716
Si 0.758302 3.224696 8.789010
Si 0.741521 7.714184 2.337590
Si 7.338202 8.247240 4.744016
Si 2.778998 9.359630 8.020262
Si 3.217124 2.770270 1.920295
Si 7.975272 4.258639 9.188517
Si 7.398367 3.402978 1.271259
Si 3.464661 5.932805 5.191119
Si 2.800796 9.729233 5.000847
Si 4.516008 8.365889 4.967507
Si 8.554656 3.790670 4.346505
Si 6.116185 0.404395 9.807108
Si 4.040823 6.801313 9.001144
Si 9.678052 5.681836 9.594910
Si 0.949410 5.308832 5.731784
Si 3.779771 0.630603 4.087051
Si 4.530304 3.625592 3.805013
Si 7.174282 0.398247 6.762533
Si 0.176451 9.028658 10.672738
Si 0.977380 7.564714 8.078497
Si 0.762947 6.135667 0.147540
Si 8.110047 0.171944 3.902733
Si 0.226560 0.010182 6.742024
Si 4.920451 8.017791 7.248699
Si 5.183292 4.506899 9.232530
Si 8.461648 9.694878 7.972557
Si 9.746587 8.952079 5.865315
Si 8.930639 8.076309 0.516440
Si 9.716205 7.103639 7.605317
Si 7.858469 1.988997 10.197371
Si 0.288503 1.050489 3.314592
Si 4.774110 10.793870 2.069403
Si 1.902090 0.549466 9.696595
Si 2.927691 8.803105 10.605312
Si 10.641120 9.583684 3.465169
Si 9.967337 10.512115 9.488361
Si 5.076617 0.993531 7.577130
Si 4.579397 8.599680 2.693392
Si 2.646963 5.635458 2.668171
Si 2.860085 0.806059 7.199301
Si 9.600407 3.394374 2.001796
Si 6.754781 1.978168 5.125405
Si 9.770400 4.663404 6.898210
Si 0.187006 4.696098 3.520879
Si 1.580928 2.611361 4.142493
Si 8.382821 6.285537 4.894888
Si 6.274051 2.012341 2.568822
Si 9.077242 6.377559 2.706986
Si 6.714169 8.047915 1.882303
Si 4.040855 0.271159 10.738505
Si 3.661255 7.178334 1.285000
64
Step 880
Si 9.974906 1.443193 10.683759
Si 6.783490 5.296947 7.134566
Si 1.606915 0.695077 1.444849
Si 3.030233 4.177029 0.415343
Si 1.488337 2.640007 6.791865
Si 7.316211 7.668020 7.111739
Si 0.596129 3.359345 0.315086
Si 4.553146 3.679329 6.279783
Si 2.423914 4.998309 7.835894
Si 1.430709 7.790166 5.230244
Si 6.653736 5.949806 0.045079
Si 9.831080 1.907132 5.155649
Si 7.124032 10.484665 1.517319
Si 0.821611 3.249551 8.896843
Si 0.833094 7.791593 2.327045
Si 7.305206 8.167294 4.873435
Si 2.561692 9.488930 8.004797
Si 3.115441 2.626510 1.982118
Si 7.891276 4.119872 9.242185
Si 7.460830 3.514913 1.315373
Si 3.497037 5.937560 5.258150
Si 2.695079 9.683646 5.061746
Si 4.590847 8.317297 4.862769
Si 8.463448 3.776600 4.178149
Si 6.014714 0.377650 9.702314
Si 4.141259 6.785889 9.042761
Si 9.659175 5.598740 9.594120
Si 0.917746 5.412403 5.751458
Si 3.916563 0.682810 4.024014
Si 4.492255 3.525844 3.765028
Si 7.201487 0.261683 6.717972
Si 0.261530 8.849527 10.623909
Si 0.997162 7.655296 8.144680
Si 0.876480 6.147380 0.179454
Si 8.132920 0.047128 3.996284
Si 0.125912 0.031010 6.872128
Si 4.840034 8.041584 7.208778
Si 5.130201 4.475808 9.295935
Si 8.337707 9.772113 8.104245
Si 9.816962 8.981612 5.681835
Si 8.902491 8.168535 0.674090
Si 9.619491 7.046741 7.719349
Si 8.024970 1.975468 10.304860
Si 0.346472 1.015405 3.308506
Si 4.767593 10.783528 2.127174
Si 1.926297 0.416898 9.796138
Si 2.782084 8.812895 10.713679
Si 10.588857 9.602665 3.408691
Si 10.045992 10.388020 9.493176
Si 5.132841 1.017110 7.711906
Si 4.594215 8.667471 2.633577
Si 2.627363 5.634909 2.687642
Si 2.856376 0.922154 7.144750
Si 9.707137 3.564996 1.991036
Si 6.752983 1.848389 5.207034
Si 9.842433 4.628730 6.732465
Si 0.177192 4.743688 3.294141
Si 1.611791 2.781170 4.130509
Si 8.503386 6.258812 4.831170
Si 6.407748 2.014499 2.614560
Si 9.202026 6.434157 2.646149
Si 6.669645 8.012291 1.762187
Si 4.165801 0.511480 10.789652
Si 3.694330 7.200723 1.192842
64
Step 890
Si 10.088258 1.435566 10.745622
Si 6.770391 5.266458 7.113471
Si 1.603338 0.724049 1.418952
Si 2.949680 4.101427 0.298857
Si 1.333941 2.690669 6.707137
Si 7.239870 7.577368 6.981333
Si 0.606697 3.259567 0.442930
Si 4.461661 3.856672 6.341520
Si 2.350688 5.041117 7.892649
Si 1.347490 7.921496 5.128699
Si 6.741648 5.930019 0.017048
Si 9.841168 1.852770 5.226837
Si 7.198845 10.429558 1.383546
Si 0.810648 3.296696 8.986725
Si 0.931608 7.851303 2.322231
Si 7.265048 8.151884 4.933248
Si 2.347577 9.604908 7.946151
Si 3.031895 2.425478 2.026766
Si 7.797354 4.018386 9.238046
Si 7.552626 3.665852 1.308689
Si 3.566767 5.946146 5.301432
Si 2.607046 9.678357 5.151791
Si 4.671571 8.240701 4.805950
Si 8.317912 3.736078 4.099775
Si 5.989052 0.375515 9.626372
Si 4.190588 6.795801 9.119161
Si 9.664718 5.503130 9.609224
Si 0.881894 5.467882 5.761065
Si 3.981682 0.839211 4.035498
Si 4.448732 3.447132 3.735081
Si 7.231483 0.111013 6.683194
Si 0.326387 8.668939 10.545759
Si 1.081763 7.711699 8.204870
Si 1.002953 6.181480 0.236876
Si 8.162384 10.725568 4.073400
Si 10.854789 0.059232 7.014960
Si 4.757286 8.031609 7.209457
Si 5.031962 4.456150 9.361434
Si 8.216141 9.862659 8.212411
Si 9.910964 9.025609 5.494482
Si 8.876516 8.231274 0.862050
Si 9.541609 6.999884 7.822959
Si 7.994063 1.933233 10.401941
Si 0.352458 0.930754 3.313520
Si 4.739889 10.788684 2.089285
Si 1.922591 0.387681 9.888149
Si 2.659002 8.784008 10.814898
Si 10.541169 9.608569 3.350353
Si 10.152698 10.258741 9.484474
Si 5.213123 1.065486 7.818312
Si 4.623082 8.646459 2.505131
Si 2.598280 5.596524 2.743490
Si 2.883036 1.021903 7.073117
Si 9.789003 3.673629 1.902908
Si 6.692753 1.820755 5.239902
Si 9.855670 4.528751 6.597645
Si 0.298469 4.843838 3.101583
Si 1.705500 2.977612 4.175389
Si 8.637601 6.188539 4.766347
Si 6.521242 2.044167 2.725278
Si 9.322716 6.559886 2.523496
Si 6.657485 7.921897 1.658637
Si 4.276861 0.742460 0.058443
Si 3.700696 7.202118 1.062031
64
Step 900
Si 10.242454 1.340686 10.785646
Si 6.782611 5.178104 7.104107
Si 1.535912 0.718443 1.377005
Si 2.898789 4.086924 0.176311
Si 1.156487 2.707184 6.591282
Si 7.119626 7.451264 6.984551
Si 0.558854 3.184087 0.513258
Si 4.457000 3.977944 6.495925
Si 2.345987 5.173999 7.941222
Si 1.255015 7.994892 5.053394
Si 6.814038 5.945749 0.023531
Si 9.823683 1.829926 5.318386
Si 7.321235 10.426605 1.249824
Si 0.752127 3.378238 9.076948
Si 1.044705 7.915833 2.365093
Si 7.239435 8.180710 4.913658
Si 2.204861 9.730887 7.858422
Si 2.990387 2.281744 2.031804
Si 7.700518 3.947063 9.152877
Si 7.606633 3.826874 1.296009
Si 3.604369 6.004902 5.346357
Si 2.555505 9.725776 5.250370
Si 4.734540 8.184959 4.756491
Si 8.199279 3.670482 4.121682
Si 6.115048 0.354339 9.648927
Si 4.212669 6.829435 9.188822
Si 9.715832 5.367401 9.613722
Si 0.876328 5.540509 5.730284
Si 4.036903 0.993075 4.186234
Si 4.447573 3.431228 3.745148
Si 7.223276 0.020400 6.606457
Si 0.307869 8.482917 10.470969
Si 1.177637 7.671578 8.237542
Si 1.112380 6.181123 0.290655
Si 8.153217 10.532809 4.109523
Si 10.746242 0.075148 7.146779
Si 4.641105 7.988849 7.258620
Si 4.906941 4.441497 9.378230
Si 8.103960 9.877975 8.349506
Si 10.000207 9.041653 5.436625
Si 8.845339 8.277496 1.045422
Si 9.470763 6.987592 7.879685
Si 7.832409 1.843387 10.483911
Si 0.344144 0.871754 3.346103
Si 4.774164 10.779445 2.038032
Si 1.975486 0.422964 9.922608
Si 2.552461 8.777992 0.004727
Si 10.478844 9.604369 3.212536
Si 10.236694 10.150710 9.467925
Si 5.255025 1.177132 7.787134
Si 4.647521 8.565879 2.389929
Si 2.621495 5.527957 2.792458
Si 2.952402 1.081047 6.977031
Si 9.852854 3.747504 1.801092
Si 6.539003 1.862728 5.277946
Si 9.792675 4.416661 6.475668
Si 0.506845 4.982116 2.979551
Si 1.768858 3.151072 4.254006
Si 8.771343 6.103034 4.716864
Si 6.646629 2.042851 2.794684
Si 9.442888 6.753677 2.395846
Si 6.674898 7.800421 1.553529
Si 4.317487 0.973160 0.161308
Si 3.700557 7.127847 0.919793
64
Step 910
Si 10.253737 1.183006 10.771142
Si 6.784916 5.037965 7.102735
Si 1.441468 0.659916 1.388409
Si 2.886270 4.121150 0.050091
Si 1.020356 2.680942 6.506275
Si 7.013432 7.385920 6.993684
Si 0.509605 3.121459 0.462678
Si 4.518563 4.042774 6.696324
Si 2.352692 5.307085 7.974687
Si 1.170551 7.997950 5.010697
Si 6.870875 5.931443 10.856430
Si 9.792810 1.758231 5.379547
Si 7.408400 10.479601 1.174133
Si 0.711765 3.536575 9.099966
Si 1.181852 8.024333 2.474835
Si 7.223534 8.222218 4.937602
Si 2.112870 9.829786 7.777612
Si 2.985948 2.240632 2.017457
Si 7.589368 3.896976 9.098176
Si 7.626321 3.990547 1.240811
Si 3.589010 6.065981 5.381205
Si 2.507720 9.833693 5.345570
Si 4.807403 8.179939 4.672246
Si 8.127199 3.614810 4.174538
Si 6.245273 0.335849 9.703164
Si 4.237304 6.842288 9.286845
Si 9.762556 5.228574 9.597986
Si 0.892318 5.646087 5.740022
Si 4.073521 1.051325 4.442386
Si 4.497894 3.517766 3.794107
Si 7.190203 10.784234 6.474127
Si 0.200492 8.304013 10.402126
Si 1.259695 7.563800 8.212146
Si 1.148941 6.057242 0.287544
Si 8.104099 10.381933 4.115823
Si 10.686264 0.062854 7.200782
Si 4.507244 7.943438 7.303399
Si 4.809290 4.462262 9.361462
Si 7.998684 9.807611 8.502050
Si 10.079543 9.001395 5.503653
Si 8.783164 8.414946 1.164318
Si 9.437228 6.990901 7.888501
Si 7.690275 1.764698 10.557504
Si 0.356804 0.875606 3.415373
Si 4.920738 10.780415 2.008419
Si 2.136530 0.438610 9.883668
Si 2.491890 8.858935 10.847914
Si 10.343886 9.591305 3.004254
Si 10.265621 10.094180 9.417668
Si 5.244855 1.331119 7.690696
Si 4.694096 8.455064 2.321408
Si 2.828365 5.464770 2.819042
Si 3.063608 1.169410 6.862781
Si 9.843261 3.881314 1.812446
Si 6.330866 1.915508 5.381624
Si 9.681579 4.353469 6.373565
Si 0.630452 5.103052 2.925746
Si 1.785381 3.267772 4.362121
Si 8.907107 6.083675 4.696554
Si 6.734305 1.968229 2.817659
Si 9.611133 6.857980 2.387206
Si 6.660658 7.641318 1.458272
Si 4.386575 1.169859 0.195697
Si 3.713662 6.978263 0.777077
64
Step 920
Si 10.137139 1.001548 10.705686
Si 6.825203 4.882610 7.100844
Si 1.360847 0.564700 1.452815
Si 2.932349 4.177619 10.800065
Si 0.943024 2.676517 6.489437
Si 6.940223 7.344497 7.035045
Si 0.419264 3.036224 0.392030
Si 4.596755 4.049555 6.892374
Si 2.311768 5.392081 8.034536
Si 1.137383 7.973429 4.992745
Si 6.927443 5.820405 10.756390
Si 9.677887 1.610788 5.408694
Si 7.502254 10.557930 1.208616
Si 0.692580 3.711699 9.027163
Si 1.382981 8.133240 2.562405
Si 7.239988 8.242742 4.997064
Si 2.053447 9.868222 7.710021
Si 3.023321 2.227752 2.014907
Si 7.470488 3.863032 9.051885
Si 7.617902 4.131253 1.156251
Si 3.565836 6.109253 5.383371
Si 2.536420 9.880526 5.392237
Si 4.894712 8.214071 4.562584
Si 8.111770 3.582879 4.184705
Si 6.306141 0.340319 9.715419
Si 4.244420 6.843850 9.415513
Si 9.790556 5.097246 9.555120
Si 0.908230 5.781687 5.762919
Si 4.090839 1.068571 4.670845
Si 4.536466 3.656759 3.852028
Si 7.193074 10.673988 6.317997
Si 0.006724 8.178100 10.335798
Si 1.337667 7.462777 8.129695
Si 1.168942 5.923777 0.253217
Si 8.047528 10.313852 4.081254
Si 10.601953 0.022545 7.216642
Si 4.335031 7.939353 7.321351
Si 4.731501 4.514008 9.370958
Si 7.906607 9.688656 8.631620
Si 10.039384 8.904490 5.656652
Si 8.715327 8.633085 1.195753
Si 9.463234 6.976616 7.850261
Si 7.625820 1.713831 10.652014
Si 0.378875 0.905288 3.518398
Si 5.121772 10.742305 2.037072
Si 2.354971 0.431510 9.784137
Si 2.417647 8.981206 10.818554
Si 10.182664 9.662464 2.811664
Si 10.279484 10.033488 9.354692
Si 5.225488 1.496229 7.641383
Si 4.736793 8.367566 2.287994
Si 3.128674 5.444781 2.835173
Si 3.195084 1.343302 6.790314
Si 9.813976 4.037519 1.889324
Si 6.135827 1.968991 5.512199
Si 9.517343 4.357974 6.353489
Si 0.693153 5.202474 2.918288
Si 1.787855 3.309264 4.475760
Si 9.041658 6.167897 4.682013
Si 6.815426 1.849695 2.787851
Si 9.762046 6.833060 2.485433
Si 6.644956 7.477480 1.383102
Si 4.460872 1.353177 0.118123
Si 3.677028 6.832248 0.664096
64
Step 930
Si 9.983855 0.851501 10.673502
Si 6.880224 4.789471 7.070774
Si 1.313251 0.430473 1.501519
Si 2.985459 4.134684 10.759194
Si 0.860140 2.643850 6.550425
Si 6.896306 7.254873 7.142873
Si 0.290944 2.920832 0.327422
Si 4.670160 4.112233 7.030190
Si 2.271371 5.433770 8.080034
Si 1.157612 7.980826 4.930803
Si 6.974436 5.666747 10.621307
Si 9.483963 1.447753 5.396943
Si 7.624569 10.628664 1.317388
Si 0.689898 3.872075 8.898119
Si 1.621075 8.198546 2.591686
Si 7.264482 8.188924 5.037996
Si 2.049870 9.869144 7.670325
Si 3.077475 2.226182 2.075922
Si 7.428528 3.809105 9.045843
Si 7.586898 4.192671 1.162535
Si 3.563276 6.151141 5.375937
Si 2.599530 9.812569 5.411071
Si 4.956015 8.249173 4.503604
Si 8.128628 3.517387 4.151639
Si 6.290605 0.326148 9.600411
Si 4.262166 6.866859 9.472625
Si 9.762606 4.975194 9.431612
Si 0.927993 5.840710 5.733546
Si 4.055313 1.055267 4.737166
Si 4.563718 3.796523 3.899077
Si 7.244815 10.629743 6.209489
Si 10.643454 8.050446 10.297376
Si 1.395469 7.401942 8.082681
Si 1.159492 5.866428 0.207253
Si 8.014545 10.328707 4.038129
Si 10.515281 10.838703 7.189972
Si 4.165978 7.954929 7.320318
Si 4.674902 4.556949 9.388790
Si 7.822732 9.542545 8.684874
Si 9.924885 8.765371 5.830113
Si 8.657467 8.783196 1.178524
Si 9.470642 7.005962 7.758694
Si 7.672569 1.796164 10.756961
Si 0.389224 0.963318 3.634506
Si 5.270203 10.704914 2.135271
Si 2.573542 0.412966 9.674489
Si 2.296902 9.114840 10.812968
Si 10.063293 9.811377 2.676269
Si 10.253117 9.932196 9.295306
Si 5.250195 1.648155 7.715344
Si 4.750741 8.327222 2.238610
Si 3.433699 5.457716 2.852983
Si 3.237117 1.547866 6.824667
Si 9.769210 4.146185 1.957727
Si 6.048407 2.022812 5.607810
Si 9.355858 4.397066 6.384595
Si 0.796494 5.316127 2.950604
Si 1.768502 3.324578 4.492168
Si 9.170372 6.336338 4.680711
Si 6.902438 1.766385 2.767622
Si 9.892239 6.818211 2.589846
Si 6.664828 7.336146 1.323285
Si 4.514464 1.514277 0.011630
Si 3.600575 6.782930 0.674912
64
Step 940
Si 9.837767 0.779699 10.686288
Si 6.980113 4.793638 6.978177
Si 1.310419 0.316515 1.477790
Si 2.953049 3.925576 10.847217
Si 0.748692 2.612978 6.640342
Si 6.866050 7.138376 7.273816
Si 0.163908 2.803939 0.295202
Si 4.693567 4.281448 7.123735
Si 2.202366 5.391522 8.077293
Si 1.227286 8.068852 4.861051
Si 7.002209 5.574114 10.493616
Si 9.291387 1.308979 5.375284
Si 7.646590 10.784501 1.376921
Si 0.723519 3.978646 8.723717
Si 1.815229 8.243558 2.570480
Si 7.252592 8.055337 5.068696
Si 2.052584 9.889929 7.654526
Si 3.132337 2.227277 2.178641
Si 7.461300 3.707878 9.056283
Si 7.575122 4.166259 1.258257
Si 3.550806 6.241994 5.349109
Si 2.714355 9.711323 5.408675
Si 4.988963 8.252253 4.545347
Si 8.182212 3.445935 4.129613
Si 6.263370 0.304002 9.441823
Si 4.337061 6.910625 9.454414
Si 9.688783 4.893831 9.264931
Si 0.978260 5.793220 5.656815
Si 3.968570 1.042660 4.627362
Si 4.581106 3.858705 4.012472
Si 7.314225 10.642631 6.176305
Si 10.489640 7.895166 10.302563
Si 1.401511 7.456843 8.094914
Si 1.088088 5.872219 0.141313
Si 8.011365 10.368178 4.005660
Si 10.449996 10.806492 7.121951
Si 4.025860 7.947046 7.262253
Si 4.695978 4.586236 9.399961
Si 7.711972 9.393492 8.666685
Si 9.810626 8.611859 6.005313
Si 8.610566 8.697646 1.098746
Si 9.426613 7.037371 7.674429
Si 7.767731 1.965199 10.829878
Si 0.445794 1.071124 3.789720
Si 5.293876 10.676050 2.249914
Si 2.796490 0.376232 9.578675
Si 2.120752 9.217501 10.829963
Si 10.049209 9.920449 2.640560
Si 10.173514 9.797553 9.242894
Si 5.338785 1.730609 7.944627
Si 4.748441 8.334562 2.147159
Si 3.670590 5.471820 2.831247
Si 3.164165 1.710739 6.959839
Si 9.731731 4.164008 1.964454
Si 6.122015 2.032052 5.602440
Si 9.204274 4.424153 6.419237
Si 0.995811 5.406312 2.962604
Si 1.758255 3.355724 4.431877
Si 9.220587 6.520552 4.716965
Si 6.978445 1.795150 2.813321
Si 10.065498 6.908964 2.647729
Si 6.729126 7.231657 1.259324
Si 4.529772 1.651806 10.762653
Si 3.453149 6.865036 0.824921
64
Step 950
Si 9.756560 0.717599 10.699990
Si 7.031062 4.799994 6.851998
Si 1.327374 0.231200 1.422674
Si 2.823841 3.690801 0.113700
Si 0.567349 2.622714 6.712123
Si 6.810954 7.038092 7.393378
Si 0.095351 2.737928 0.260521
Si 4.707135 4.433854 7.128903
Si 2.247462 5.396606 8.009324
Si 1.282512 8.170385 4.778833
Si 7.006436 5.558530 10.419008
Si 9.161726 1.248052 5.369784
Si 7.613698 0.012948 1.301454
Si 0.728629 3.884125 8.611953
Si 1.946842 8.289752 2.499742
Si 7.183615 7.902208 5.109286
Si 2.049070 9.962134 7.667736
Si 3.187917 2.191999 2.278354
Si 7.472838 3.550590 9.056083
Si 7.517542 4.127983 1.378628
Si 3.526922 6.325827 5.333921
Si 2.892256 9.666523 5.417153
Si 5.025624 8.264866 4.564817
Si 8.286397 3.384575 4.166859
Si 6.305643 0.247821 9.304008
Si 4.432302 6.960516 9.425513
Si 9.566138 4.929353 9.106504
Si 1.027211 5.743586 5.591842
Si 3.852537 1.030560 4.456946
Si 4.566121 3.892413 4.192926
Si 7.351352 10.652645 6.250162
Si 10.352879 7.754915 10.307086
Si 1.337497 7.564377 8.111015
Si 1.034974 5.900290 0.078273
Si 8.010638 10.387212 3.984704
Si 10.400437 10.756980 7.040536
Si 3.945763 7.911939 7.213797
Si 4.742291 4.613483 9.464986
Si 7.580598 9.270002 8.607184
Si 9.729973 8.515225 6.152033
Si 8.560157 8.499782 0.968313
Si 9.415785 7.036842 7.685650
Si 7.835963 2.176180 10.823210
Si 0.523004 1.243403 3.960234
Si 5.200123 10.679627 2.388452
Si 3.010003 0.326479 9.477843
Si 1.906292 9.281728 10.831777
Si 10.140555 9.957594 2.632863
Si 10.060748 9.634313 9.243394
Si 5.465117 1.827722 8.174307
Si 4.798433 8.357432 2.072921
Si 3.825451 5.456970 2.762828
Si 3.075594 1.852914 7.125244
Si 9.769458 4.158414 1.948903
Si 6.246803 2.024979 5.599260
Si 9.142956 4.441881 6.375264
Si 1.250475 5.462521 2.949591
Si 1.774307 3.330877 4.347982
Si 9.226277 6.640465 4.773155
Si 7.026671 1.919740 2.937849
Si 10.256390 7.085875 2.675806
Si 6.801381 7.146417 1.188815
Si 4.502017 1.756921 10.715306
Si 3.284592 6.944318 0.953284
64
Step 960
Si 9.763724 0.582225 10.727651
Si 7.000615 4.731454 6.697115
Si 1.295440 0.219519 1.375594
Si 2.639602 3.521565 0.283799
Si 0.383838 2.628941 6.751941
Si 6.725334 6.991944 7.515930
Si 0.071905 2.689765 0.226548
Si 4.731886 4.463723 7.077202
Si 2.321756 5.416254 7.980616
Si 1.326274 8.283705 4.702025
Si 7.010239 5.594045 10.377106
Si 9.146389 1.258938 5.380220
Si 7.539627 0.023424 1.196291
Si 0.709899 3.758006 8.604465
Si 2.004800 8.387640 2.444124
Si 7.087823 7.763812 5.198755
Si 2.006780 10.067850 7.648821
Si 3.250323 2.157984 2.354594
Si 7.435327 3.363224 8.982692
Si 7.449597 4.085259 1.491561
Si 3.499839 6.405196 5.319965
Si 3.097376 9.669622 5.415512
Si 5.016053 8.322582 4.518519
Si 8.467074 3.357076 4.264748
Si 6.430934 0.133990 9.230946
Si 4.516197 6.999615 9.380119
Si 9.506404 5.004939 9.015546
Si 1.023005 5.688163 5.538410
Si 3.742154 1.005996 4.338391
Si 4.571061 3.875729 4.431149
Si 7.339765 10.611408 6.398492
Si 10.255205 7.612378 10.353575
Si 1.290465 7.698588 8.085172
Si 1.008844 5.901082 10.855843
Si 7.984012 10.368598 3.920348
Si 10.394405 10.736978 6.934715
Si 3.919954 7.836610 7.233028
Si 4.761410 4.636238 9.546985
Si 7.432648 9.143304 8.535357
Si 9.718078 8.527236 6.232186
Si 8.529851 8.307986 0.838194
Si 9.397962 6.969563 7.786702
Si 7.850134 2.392508 10.808907
Si 0.583665 1.393605 4.124907
Si 5.101778 10.737373 2.540403
Si 3.208433 0.259245 9.378319
Si 1.649287 9.311781 10.802487
Si 10.277633 9.971790 2.608461
Si 9.950622 9.518694 9.284063
Si 5.559549 2.018336 8.293718
Si 4.949526 8.352322 2.016427
Si 3.943783 5.430485 2.600099
Si 3.010180 2.019725 7.257973
Si 9.857842 4.174210 1.943137
Si 6.287554 2.047482 5.653690
Si 9.132437 4.482204 6.250765
Si 1.468352 5.501632 2.869538
Si 1.775186 3.277342 4.274366
Si 9.275393 6.678830 4.770365
Si 7.036588 2.020042 3.039251
Si 10.393888 7.273396 2.698777
Si 6.834177 7.094586 1.140522
Si 4.489147 1.833728 10.725193
Si 3.144994 6.992535 1.035663
64
Step 970
Si 9.789918 0.395433 10.765954
Si 6.986597 4.619155 6.567434
Si 1.282993 0.315975 1.381173
Si 2.413038 3.465365 0.457483
Si 0.244166 2.643013 6.785387
Si 6.625031 6.956031 7.621557
Si 0.073623 2.688785 0.196857
Si 4.713691 4.443636 6.982616
Si 2.395205 5.413584 8.019454
Si 1.378393 8.404254 4.682326
Si 7.014517 5.643061 10.316283
Si 9.217929 1.285561 5.375591
Si 7.453277 10.848987 1.100183
Si 0.685956 3.648533 8.656320
Si 2.049867 8.536958 2.413848
Si 7.024252 7.680482 5.333032
Si 1.935036 10.236739 7.616593
Si 3.284591 2.116278 2.391705
Si 7.370857 3.298379 8.776327
Si 7.430603 4.003625 1.620233
Si 3.470757 6.470676 5.258992
Si 3.290509 9.683920 5.424629
Si 4.983458 8.423271 4.407947
Si 8.706657 3.378243 4.315703
Si 6.520387 0.028781 9.252940
Si 4.568470 7.041256 9.364506
Si 9.478524 5.054345 8.992815
Si 0.995374 5.616934 5.524455
Si 3.619187 1.006110 4.326664
Si 4.570488 3.839562 4.658155
Si 7.309145 10.495254 6.565095
Si 10.213503 7.418108 10.447958
Si 1.249523 7.847915 8.057288
Si 0.993478 5.839262 10.773031
Si 7.943309 10.333152 3.755671
Si 10.426474 10.698017 6.851731
Si 3.920622 7.750433 7.297841
Si 4.725735 4.615919 9.649741
Si 7.318689 8.987848 8.473754
Si 9.769463 8.592876 6.261693
Si 8.552084 8.247667 0.767278
Si 9.367215 6.866589 7.912937
Si 7.889023 2.492575 0.023433
Si 0.607627 1.426739 4.242565
Si 5.095032 10.809475 2.689520
Si 3.431570 0.173852 9.288817
Si 1.402479 9.316300 10.691340
Si 10.370385 10.001134 2.599737
Si 9.847559 9.519940 9.274392
Si 5.610984 2.211419 8.401990
Si 5.138029 8.316383 1.985462
Si 4.031591 5.366171 2.423061
Si 2.936387 2.191990 7.336859
Si 9.964464 4.199701 1.954659
Si 6.246430 2.077383 5.732396
Si 9.106429 4.587847 6.084480
Si 1.587894 5.438680 2.749542
Si 1.816390 3.265527 4.222154
Si 9.344185 6.696583 4.708336
Si 6.983923 2.047967 3.104597
Si 10.474431 7.432761 2.698755
Si 6.760778 7.055570 1.099360
Si 4.487656 1.895753 10.710368
Si 3.088181 7.042280 1.022983
64
Step 980
Si 9.801749 0.216044 10.854933
Si 6.970365 4.525804 6.482350
Si 1.286338 0.468134 1.440338
Si 2.234304 3.511472 0.636782
Si 0.139229 2.659378 6.829936
Si 6.553587 6.900785 7.693970
Si 0.022417 2.709004 0.175516
Si 4.587851 4.478063 6.877509
Si 2.456418 5.436976 8.081801
Si 1.419471 8.518685 4.727560
Si 6.952851 5.670359 10.235975
Si 9.217507 1.312602 5.338015
Si 7.384873 10.790653 0.961579
Si 0.688342 3.541390 8.730044
Si 2.110159 8.715175 2.393489
Si 6.958857 7.707758 5.467118
Si 1.887391 10.412886 7.576024
Si 3.273509 2.152679 2.357120
Si 7.454186 3.344889 8.570866
Si 7.427402 3.933203 1.800491
Si 3.449707 6.469666 5.140540
Si 3.437965 9.741138 5.459062
Si 4.970337 8.492297 4.273860
Si 8.960701 3.347769 4.264131
Si 6.512758 10.851358 9.399139
Si 4.585246 7.053588 9.449628
Si 9.431985 4.904996 9.024958
Si 0.989829 5.551889 5.512153
Si 3.507740 0.954379 4.435950
Si 4.522594 3.796026 4.818722
Si 7.337622 10.334462 6.612590
Si 10.263901 7.217108 10.585083
Si 1.193443 7.967096 8.051692
Si 1.032698 5.753137 10.756254
Si 7.909506 10.323358 3.598629
Si 10.448763 10.674100 6.787035
Si 3.868919 7.743688 7.337910
Si 4.631056 4.582510 9.805248
Si 7.241968 8.818720 8.454926
Si 9.861534 8.641282 6.247901
Si 8.481901 8.289360 0.801020
Si 9.377392 6.874207 7.914752
Si 7.973466 2.486088 0.067834
Si 0.644991 1.327318 4.257437
Si 5.187660 10.836932 2.837570
Si 3.650205 0.077802 9.189296
Si 1.220932 9.273686 10.479441
Si 10.401089 10.074113 2.647825
Si 9.738352 9.608047 9.181113
Si 5.535424 2.221768 8.474835
Si 5.304712 8.280467 1.989687
Si 4.126105 5.257081 2.296187
Si 2.851060 2.342368 7.394261
Si 10.121180 4.273796 1.976369
Si 6.215613 2.052996 5.774824
Si 9.146469 4.730427 5.966548
Si 1.587207 5.298083 2.615199
Si 1.871232 3.327556 4.226442
Si 9.461349 6.777351 4.614369
Si 6.920084 2.040280 3.186064
Si 10.512845 7.510097 2.681030
Si 6.709228 7.051608 1.051472
Si 4.498665 1.950148 10.690494
Si 3.061781 7.121918 0.885088
64
Step 990
Si 9.801731 0.097000 0.142666
Si 6.964304 4.454932 6.439053
Si 1.326188 0.617117 1.525929
Si 2.165030 3.582126 0.796994
Si 0.038014 2.668974 6.819578
Si 6.483353 6.793640 7.711543
Si 10.763455 2.721099 0.180582
Si 4.418922 4.543930 6.855802
Si 2.470604 5.440877 8.153343
Si 1.485307 8.614787 4.818784
Si 6.883662 5.609936 10.166043
Si 9.089583 1.328499 5.307414
Si 7.313774 10.726749 0.800558
Si 0.719855 3.486521 8.807448
Si 2.162398 8.914225 2.350302
Si 6.922710 7.784160 5.573501
Si 1.901820 10.577833 7.497832
Si 3.268963 2.207179 2.276391
Si 7.576482 3.445155 8.419387
Si 7.431084 3.929275 1.935542
Si 3.389511 6.483268 4.924888
Si 3.483942 9.808396 5.548715
Si 4.983172 8.437940 4.251794
Si 9.223390 3.317440 4.157072
Si 6.472544 10.842788 9.595259
Si 4.556600 7.067826 9.625382
Si 9.413099 4.690989 9.090562
Si 1.042090 5.524867 5.502631
Si 3.420440 0.902703 4.606221
Si 4.368311 3.753151 4.801276
Si 7.436400 10.191368 6.542201
Si 10.344079 7.045012 10.726897
Si 1.148776 8.045969 8.062543
Si 1.110731 5.630866 10.692750
Si 7.925406 10.331848 3.492687
Si 10.477777 10.690495 6.725035
Si 3.742424 7.801083 7.329442
Si 4.487919 4.538847 9.989234
Si 7.227547 8.691107 8.494520
Si 9.943213 8.667442 6.192141
Si 8.397993 8.416660 0.841595
Si 9.400712 6.944542 7.872615
Si 8.076441 2.434792 0.078194
Si 0.729627 1.179420 4.240998
Si 5.327597 0.019346 2.936932
Si 3.810586 10.834610 9.056220
Si 1.109256 9.211018 10.286765
Si 10.387029 10.135992 2.731807
Si 9.599908 9.669036 9.047153
Si 5.434279 2.178553 8.456562
Si 5.321464 8.307550 2.021666
Si 4.230852 5.094522 2.249773
Si 2.794136 2.440522 7.474672
Si 10.244343 4.371428 2.013473
Si 6.227584 1.946720 5.778190
Si 9.268306 4.869438 5.871133
Si 1.509157 5.193664 2.558543
Si 1.922832 3.436773 4.306087
Si 9.547928 6.861453 4.541377
Si 6.841694 1.990679 3.282000
Si 10.560283 7.523623 2.628450
Si 6.774311 6.973939 0.954819
Si 4.502870 2.026015 10.728785
Si 3.042221 7.240290 0.696237
64
Step 1000
Si 9.851705 0.025987 0.323786
Si 7.003084 4.411236 6.377653
Si 1.406972 0.743667 1.585068
Si 2.202183 3.576549 0.919966
Si 10.787020 2.686353 6.727047
Si 6.415705 6.641788 7.687486
Si 10.565189 2.666928 0.190106
Si 4.228156 4.615015 6.879101
Si 2.445498 5.491156 8.210306
Si 1.505071 8.704534 4.898159
Si 6.843604 5.459517 10.091887
Si 8.876955 1.314441 5.273184
Si 7.214053 10.682886 0.730633
Si 0.766347 3.450146 8.868438
Si 2.194669 9.110724 2.234649
Si 6.897493 7.859289 5.626037
Si 1.959493 10.701092 7.444132
Si 3.310282 2.234941 2.200823
Si 7.680896 3.501445 8.330881
Si 7.452140 3.937267 2.035440
Si 3.355073 6.488009 4.684440
Si 3.504197 9.820892 5.665052
Si 5.006998 8.327917 4.376371
Si 9.479846 3.297938 3.991496
Si 6.413607 10.841947 9.756381
Si 4.437349 7.107166 9.782121
Si 9.433978 4.538673 9.197265
Si 1.119054 5.536360 5.522715
Si 3.389712 0.899793 4.769131
Si 4.161763 3.714138 4.722782
Si 7.557522 10.057223 6.406943
Si 10.376326 6.935358 10.844776
Si 1.197530 8.132668 8.090356
Si 1.220137 5.545841 10.541896
Si 8.015809 10.336150 3.408620
Si 10.556678 10.747108 6.683631
Si 3.583128 7.879102 7.289187
Si 4.348363 4.470554 10.212848
Si 7.211523 8.641737 8.596760
Si 10.012831 8.643108 6.062270
Si 8.399128 8.530100 0.906786
Si 9.407375 6.970240 7.832866
Si 8.167540 2.406000 0.062208
Si 0.819933 1.016256 4.251910
Si 5.439770 0.111589 2.992667
Si 3.917511 10.738143 8.887630
Si 1.047027 9.134492 10.179449
Si 10.326692 10.129990 2.842027
Si 9.418824 9.700938 8.921542
Si 5.360351 2.178313 8.354628
Si 5.242165 8.327048 1.984151
Si 4.308911 4.924332 2.232887
Si 2.789668 2.484401 7.581426
Si 10.289613 4.485078 2.090515
Si 6.222878 1.828077 5.788250
Si 9.397974 4.995381 5.810479
Si 1.426411 5.205379 2.600805
Si 1.938222 3.550161 4.392830
Si 9.568291 6.971613 4.543290
Si 6.778904 1.971800 3.341938
Si 10.647571 7.534282 2.503394
Si 6.876927 6.893949 0.912257
Si 4.493686 2.098613 10.801302
Si 3.034707 7.345183 0.528923
64
Step 1010
Si 9.951172 10.826667 0.489906
Si 7.030242 4.410949 6.265940
Si 1.493488 0.804650 1.620162
Si 2.196277 3.584265 0.943484
Si 10.699430 2.712864 6.574386
Si 6.348662 6.500117 7.681253
Si 10.369445 2.585853 0.260232
Si 4.039213 4.663870 6.911110
Si 2.420918 5.612673 8.248403
Si 1.492525 8.767682 4.867048
Si 6.748144 5.314589 9.998040
Si 8.657632 1.304065 5.228610
Si 7.175692 10.639294 0.882254
Si 0.827227 3.390160 8.897849
Si 2.207107 9.275242 2.088196
Si 6.927576 7.930114 5.614898
Si 2.022673 10.830758 7.457266
Si 3.437263 2.164316 2.234510
Si 7.735591 3.484398 8.304480
Si 7.494184 3.932786 2.098585
Si 3.340048 6.514208 4.456791
Si 3.575353 9.767340 5.708674
Si 5.025543 8.243551 4.502173
Si 9.739278 3.269550 3.830227
Si 6.229418 0.004767 9.709696
Si 4.374966 7.084317 9.794593
Si 9.491187 4.516977 9.321478
Si 1.180171 5.588767 5.595558
Si 3.396255 0.965891 4.906314
Si 4.007811 3.686120 4.637082
Si 7.655630 9.944836 6.229930
Si 10.367821 6.829806 0.060754
Si 1.228046 8.191945 8.088566
Si 1.336952 5.525708 10.375461
Si 8.108685 10.289576 3.357340
Si 10.660905 10.818350 6.656938
Si 3.464273 7.915006 7.286274
Si 4.252150 4.490136 10.416584
Si 7.184739 8.640240 8.741004
Si 10.108214 8.614892 5.907372
Si 8.464580 8.578596 0.970607
Si 9.415223 6.951538 7.871538
Si 8.220186 2.346141 0.062646
Si 0.884157 0.862020 4.317227
Si 5.480007 0.156963 3.033035
Si 4.008933 10.661000 8.730763
Si 0.985176 9.060326 10.177967
Si 10.267214 10.089760 2.969927
Si 9.269417 9.720868 8.786534
Si 5.312665 2.229969 8.212588
Si 5.118308 8.326410 1.940328
Si 4.360569 4.844263 2.239400
Si 2.803993 2.462730 7.658089
Si 10.260201 4.602203 2.138749
Si 6.193177 1.706235 5.827090
Si 9.518300 5.106989 5.761338
Si 1.391595 5.299387 2.721621
Si 1.933298 3.617160 4.491122
Si 9.536919 7.092157 4.542562
Si 6.757247 2.047974 3.397147
Si 10.743526 7.577510 2.394656
Si 6.879286 6.800038 0.935262
Si 4.525842 2.088363 10.826784
Si 2.976297 7.442103 0.465580
64
Step 1020
Si 10.117339 10.735350 0.584632
Si 7.020339 4.379614 6.152658
Si 1.543379 0.802798 1.640720
Si 2.078101 3.640396 0.891139
Si 10.619670 2.736178 6.384913
Si 6.223806 6.363528 7.681866
Si 10.278314 2.515091 0.377668
Si 3.959641 4.681121 6.900801
Si 2.394762 5.729973 8.246280
Si 1.499528 8.865904 4.708767
Si 6.607359 5.159161 9.905116
Si 8.547555 1.317027 5.207825
Si 7.117990 10.601894 1.045226
Si 0.906307 3.293059 8.911016
Si 2.178168 9.396749 1.967640
Si 6.963577 7.950651 5.590214
Si 2.065180 0.139317 7.520360
Si 3.632982 1.985666 2.361421
Si 7.754029 3.434086 8.335164
Si 7.525493 3.931828 2.066346
Si 3.342802 6.575687 4.265517
Si 3.688715 9.645185 5.699085
Si 5.042213 8.190778 4.575848
Si 10.006437 3.218059 3.731830
Si 6.032643 0.031296 9.651918
Si 4.451372 7.006044 9.649000
Si 9.558171 4.602200 9.455665
Si 1.270770 5.647269 5.711738
Si 3.463453 1.049166 5.023184
Si 4.038651 3.726325 4.607164
Si 7.768675 9.889301 6.058214
Si 10.327867 6.719274 0.096419
Si 1.219428 8.220244 8.053392
Si 1.465854 5.546329 10.249610
Si 8.137098 10.208699 3.364340
Si 10.751777 0.064260 6.642751
Si 3.425787 7.940076 7.366076
Si 4.219551 4.571634 10.584729
Si 7.178166 8.639737 8.882266
Si 10.255980 8.674831 5.834565
Si 8.476250 8.564075 0.983302
Si 9.386708 6.983139 7.958052
Si 8.136667 2.294658 0.112446
Si 0.912844 0.737374 4.405733
Si 5.430822 0.142514 3.090062
Si 4.074042 10.590833 8.557036
Si 0.875173 9.026730 10.285175
Si 10.300196 10.035576 3.104072
Si 9.185302 9.726213 8.648011
Si 5.266218 2.336182 8.042502
Si 5.035436 8.385745 1.920183
Si 4.432427 4.820815 2.301467
Si 2.797712 2.379280 7.659000
Si 10.183709 4.736170 2.127805
Si 6.081829 1.581987 5.878421
Si 9.609931 5.193101 5.718817
Si 1.395114 5.447591 2.806816
Si 1.742163 3.604824 4.638232
Si 9.431912 7.127481 4.452880
Si 6.745148 2.205482 3.423946
Si 0.014011 7.626778 2.334030
Si 6.828677 6.687475 1.013692
Si 4.606914 1.984796 10.759628
Si 2.817884 7.539398 0.517594
64
Step 1030
Si 10.278958 10.639584 0.598254
Si 7.002815 4.307831 6.068360
Si 1.568136 0.810371 1.646108
Si 1.896264 3.667555 0.843186
Si 10.583565 2.751991 6.236093
Si 6.132712 6.286395 7.622396
Si 10.214873 2.443899 0.505854
Si 3.917336 4.658694 6.845721
Si 2.366531 5.795614 8.180225
Si 1.545045 8.924188 4.524101
Si 6.508477 5.030154 9.850684
Si 8.478007 1.378935 5.182595
Si 7.033402 10.619777 1.149771
Si 0.971266 3.166844 8.906295
Si 2.184305 9.515626 1.886124
Si 6.948760 7.860925 5.578656
Si 2.066255 0.296352 7.611226
Si 3.867299 1.802315 2.447670
Si 7.750450 3.357555 8.407875
Si 7.541696 3.956116 1.996284
Si 3.355628 6.636550 4.083910
Si 3.802107 9.504879 5.694678
Si 5.058726 8.132847 4.544312
Si 10.246447 3.137646 3.674747
Si 5.910700 0.045753 9.644693
Si 4.549437 6.988670 9.516630
Si 9.618771 4.723064 9.571084
Si 1.380379 5.712533 5.815338
Si 3.565619 1.132867 5.160907
Si 4.145598 3.765693 4.640790
Si 7.928064 9.888352 5.956491
Si 10.273312 6.615011 0.078941
Si 1.157617 8.297524 8.017058
Si 1.549052 5.620906 10.189568
Si 8.115103 10.099365 3.404107
Si 10.828009 0.163187 6.667217
Si 3.451053 8.015967 7.456542
Si 4.183049 4.621631 10.761230
Si 7.112618 8.601654 9.008564
Si 10.423475 8.780510 5.860783
Si 8.452950 8.502031 0.949838
Si 9.330249 7.007092 8.056574
Si 8.049195 2.218446 0.166605
Si 0.960478 0.684837 4.460528
Si 5.356536 0.108387 3.143490
Si 4.112459 10.454574 8.357109
Si 0.709898 8.996479 10.388541
Si 10.370174 10.010924 3.186816
Si 9.217335 9.753464 8.515554
Si 5.235737 2.444498 7.883488
Si 4.956446 8.477593 1.961586
Si 4.538889 4.805330 2.359708
Si 2.746135 2.333994 7.605925
Si 10.058195 4.820734 2.068841
Si 5.901955 1.489014 5.931707
Si 9.655998 5.268189 5.705705
Si 1.486354 5.626086 2.888324
Si 1.518334 3.578850 4.793220
Si 9.293884 7.107523 4.337176
Si 6.697258 2.389296 3.451091
Si 0.159827 7.700990 2.305317
Si 6.770666 6.547804 1.121732
Si 4.706906 1.897222 10.680588
Si 2.649250 7.605313 0.567451
64
Step 1040
Si 10.361312 10.573466 0.574940
Si 6.970615 4.182637 6.014773
Si 1.627529 0.944682 1.640463
Si 1.695096 3.639185 0.827143
Si 10.537926 2.763306 6.226748
Si 6.125355 6.211285 7.453393
Si 10.191782 2.382638 0.598582
Si 3.898872 4.612490 6.786761
Si 2.338979 5.793686 8.051624
Si 1.692736 8.909343 4.376257
Si 6.446664 4.909363 9.856740
Si 8.389472 1.480527 5.137609
Si 6.917068 10.683327 1.177010
Si 1.016964 3.047109 8.914955
Si 2.289180 9.612571 1.855008
Si 6.935756 7.732192 5.581846
Si 2.002381 0.351406 7.745012
Si 4.070454 1.698251 2.464044
Si 7.741485 3.286033 8.515402
Si 7.524704 4.057777 1.880230
Si 3.374488 6.662519 3.878634
Si 3.885736 9.367337 5.658602
Si 5.109554 8.086203 4.472731
Si 10.417326 3.042672 3.574319
Si 5.853559 0.054954 9.681996
Si 4.675264 7.037956 9.453530
Si 9.664817 4.787848 9.669876
Si 1.464399 5.783153 5.874849
Si 3.647413 1.202772 5.272289
Si 4.292958 3.813017 4.671236
Si 8.067148 9.870261 5.911746
Si 10.195744 6.524675 0.026654
Si 1.022747 8.458570 8.026728
Si 1.556358 5.740791 10.193835
Si 8.059404 9.968833 3.455895
Si 0.011621 0.283171 6.706377
Si 3.488443 8.111461 7.528425
Si 4.175711 4.593930 0.095025
Si 7.054051 8.534130 9.151257
Si 10.562789 8.834117 5.932876
Si 8.424138 8.416230 0.882235
Si 9.280903 7.048596 8.152774
Si 7.972513 2.138519 0.198579
Si 1.048152 0.668929 4.454883
Si 5.333785 0.034696 3.184854
Si 4.129235 10.315476 8.154985
Si 0.488601 8.963820 10.409460
Si 10.392171 10.031911 3.225359
Si 9.308161 9.758430 8.377267
Si 5.246946 2.520130 7.799904
Si 4.892266 8.562805 2.034907
Si 4.700034 4.795297 2.373770
Si 2.668498 2.412009 7.564905
Si 9.908612 4.891809 1.994100
Si 5.761539 1.423599 5.966694
Si 9.661059 5.327416 5.739431
Si 1.619171 5.785786 2.935929
Si 1.380912 3.567916 4.944274
Si 9.133060 7.105537 4.224444
Si 6.622379 2.575429 3.536244
Si 0.241846 7.745446 2.310399
Si 6.656255 6.375511 1.240716
Si 4.825074 1.852077 10.619652
Si 2.534851 7.636979 0.618801
64
Step 1050
Si 10.347456 10.614150 0.594898
Si 6.978269 4.018064 5.973824
Si 1.734214 1.153242 1.656678
Si 1.475570 3.634231 0.825248
Si 10.447051 2.791440 6.364908
Si 6.164866 6.150301 7.248233
Si 10.241311 2.343838 0.661459
Si 3.978575 4.564544 6.778411
Si 2.308062 5.792883 7.943150
Si 1.923853 8.867199 4.273152
Si 6.432450 4.796732 9.892785
Si 8.304543 1.627774 5.074883
Si 6.809580 10.739155 1.149665
Si 0.995595 3.028346 8.983413
Si 2.477477 9.701752 1.837748
Si 6.983174 7.601384 5.599380
Si 1.984363 0.351178 7.919039
Si 4.231087 1.660318 2.416606
Si 7.725245 3.217445 8.658698
Si 7.478261 4.161248 1.759681
Si 3.438075 6.660957 3.677245
Si 3.905825 9.345778 5.616165
Si 5.216493 7.975589 4.393967
Si 10.537498 2.915805 3.399771
Si 5.828990 10.847077 9.695113
Si 4.807093 7.086889 9.469320
Si 9.674337 4.710206 9.716819
Si 1.434870 5.906766 5.866460
Si 3.655160 1.221957 5.350198
Si 4.430037 3.842489 4.680590
Si 8.138757 9.822708 5.861423
Si 10.123473 6.503299 10.836029
Si 0.910195 8.560726 8.085702
Si 1.585879 5.856063 10.203893
Si 8.037935 9.797447 3.484150
Si 0.023384 0.430375 6.736781
Si 3.501994 8.096517 7.602268
Si 4.136611 4.529600 0.284535
Si 7.038441 8.421908 9.315100
Si 10.691364 8.811621 5.940179
Si 8.369656 8.356560 0.811829
Si 9.207093 7.089198 8.225088
Si 7.802672 2.060835 0.186173
Si 1.164025 0.704966 4.412974
Si 5.333303 10.808124 3.232334
Si 4.154641 10.280173 7.986823
Si 0.249074 8.902086 10.362065
Si 10.322096 10.078074 3.209417
Si 9.358492 9.756580 8.290577
Si 5.308522 2.581171 7.797901
Si 4.856022 8.657462 2.061366
Si 4.872885 4.778324 2.378506
Si 2.562916 2.551855 7.510407
Si 9.800782 4.976126 1.952738
Si 5.684063 1.339359 6.031665
Si 9.659028 5.382032 5.804164
Si 1.655422 5.826022 2.923579
Si 1.352464 3.584722 5.057808
Si 8.984609 7.149769 4.105149
Si 6.550790 2.807140 3.632064
Si 0.219915 7.718030 2.374658
Si 6.512125 6.245958 1.321273
Si 4.953225 1.909695 10.604416
Si 2.512785 7.604736 0.621442
64
Step 1060
Si 10.293234 10.691641 0.696396
Si 7.100243 3.929974 5.979820
Si 1.896374 1.330968 1.729615
Si 1.309173 3.727187 0.837666
Si 10.321359 2.825021 6.540219
Si 6.188041 6.092058 7.092162
Si 10.209481 2.329289 0.692304
Si 4.115096 4.586092 6.827605
Si 2.300095 5.809354 7.905449
Si 2.177044 8.831181 4.199217
Si 6.424381 4.732368 9.906097
Si 8.264428 1.754492 5.017342
Si 6.739960 10.734842 1.121264
Si 0.933266 3.135356 9.093153
Si 2.650261 9.798019 1.815749
Si 7.056130 7.473191 5.650105
Si 2.039141 0.320381 8.118547
Si 4.352120 1.654490 2.333535
Si 7.716595 3.152051 8.820079
Si 7.534548 4.198732 1.599670
Si 3.579757 6.620897 3.527780
Si 3.897086 9.375214 5.504842
Si 5.380448 7.863654 4.325584
Si 10.631352 2.755470 3.195819
Si 5.775607 10.693492 9.627804
Si 4.935150 7.065613 9.521972
Si 9.626880 4.492713 9.716613
Si 1.320341 6.072340 5.782826
Si 3.562343 1.203495 5.381330
Si 4.449466 3.869401 4.666802
Si 8.185436 9.780681 5.799177
Si 10.047197 6.568409 10.775605
Si 0.925836 8.526774 8.151069
Si 1.692285 5.908514 10.199481
Si 8.016503 9.604323 3.476791
Si 10.849821 0.579015 6.735089
Si 3.440403 8.022717 7.709613
Si 4.017865 4.480981 0.384876
Si 7.060617 8.279236 9.472657
Si 10.812851 8.716221 5.779030
Si 8.286782 8.320304 0.773599
Si 9.107914 7.133790 8.257157
Si 7.657588 2.047695 0.172880
Si 1.290824 0.780201 4.368855
Si 5.347743 10.716857 3.326028
Si 4.214918 10.370967 7.898653
Si 0.049056 8.831225 10.333639
Si 10.259495 10.116277 3.175260
Si 9.300207 9.777407 8.225559
Si 5.383382 2.589911 7.910422
Si 4.851713 8.723734 2.022489
Si 4.951018 4.809480 2.422922
Si 2.423600 2.674245 7.436018
Si 9.734771 5.034100 1.983922
Si 5.668072 1.192246 6.114237
Si 9.663201 5.444522 5.903807
Si 1.535348 5.761550 2.811942
Si 1.386012 3.653589 5.166133
Si 8.907746 7.230329 3.983641
Si 6.522845 3.003836 3.678001
Si 0.120537 7.679863 2.438370
Si 6.370960 6.241447 1.367648
Si 5.064347 2.059414 10.613819
Si 2.519725 7.529164 0.626227
64
Step 1070
Si 10.235125 10.800939 0.848393
Si 7.271444 3.882874 6.075649
Si 2.058123 1.478786 1.827990
Si 1.210168 3.901651 0.857868
Si 10.127316 2.904028 6.712635
Si 6.190380 6.005673 7.033152
Si 10.098361 2.263626 0.665430
Si 4.234246 4.646479 6.920061
Si 2.316148 5.818790 7.865586
Si 2.316285 8.753338 4.116246
Si 6.341492 4.746359 9.842105
Si 8.268828 1.808496 4.987840
Si 6.693288 10.678234 1.124267
Si 0.838501 3.298664 9.221950
Si 2.803839 9.884712 1.789458
Si 7.140089 7.333583 5.760916
Si 2.088695 0.279614 8.294266
Si 4.480609 1.676859 2.233924
Si 7.766118 3.112053 8.950028
Si 7.707225 4.170698 1.431073
Si 3.665480 6.551271 3.396648
Si 3.940149 9.399055 5.378066
Si 5.534632 7.767660 4.284275
Si 10.702492 2.604978 3.047103
Si 5.715123 10.500719 9.532571
Si 5.073019 6.955208 9.639349
Si 9.574702 4.277822 9.692626
Si 1.196946 6.270384 5.641450
Si 3.475265 1.194342 5.362888
Si 4.352712 3.881201 4.667908
Si 8.267339 9.808966 5.763084
Si 9.956670 6.621321 10.684171
Si 0.997723 8.474136 8.198272
Si 1.818812 5.925187 10.178827
Si 7.970239 9.442126 3.402585
Si 10.841040 0.649409 6.703123
Si 3.344892 7.951410 7.836228
Si 3.914069 4.416340 0.398469
Si 7.070574 8.168537 9.628201
Si 0.066034 8.588472 5.531178
Si 8.193469 8.303754 0.787477
Si 9.045682 7.155278 8.270726
Si 7.576352 2.038143 0.193542
Si 1.367486 0.831481 4.355801
Si 5.376462 10.666390 3.505564
Si 4.278567 10.498709 7.846285
Si 10.759167 8.752512 10.355664
Si 10.277118 10.169152 3.163231
Si 9.193100 9.800055 8.114790
Si 5.420564 2.565624 8.062406
Si 4.887012 8.758716 1.902802
Si 4.892288 4.900829 2.481001
Si 2.323504 2.749674 7.349602
Si 9.688621 5.074450 2.045044
Si 5.686123 1.041065 6.161800
Si 9.666639 5.518714 6.012939
Si 1.388788 5.644494 2.712253
Si 1.418019 3.765073 5.232265
Si 8.918420 7.256816 3.879059
Si 6.534418 3.129867 3.661263
Si 0.018895 7.676195 2.463537
Si 6.235902 6.369588 1.341664
Si 5.126215 2.252507 10.653122
Si 2.509014 7.494918 0.644287
64
Step 1080
Si 10.204378 0.000153 1.003155
Si 7.412114 3.880690 6.288355
Si 2.249479 1.602248 1.940380
Si 1.194386 4.099306 0.897647
Si 9.908012 3.036961 6.877682
Si 6.138791 5.841703 7.081233
Si 9.953207 2.147812 0.616577
Si 4.338315 4.675724 7.020205
Si 2.364943 5.816949 7.808989
Si 2.282367 8.654555 3.971819
Si 6.213287 4.857933 9.721951
Si 8.286202 1.777934 4.990682
Si 6.629012 10.627161 1.084109
Si 0.758139 3.461599 9.297743
Si 2.934466 9.920002 1.777108
Si 7.357305 7.264716 5.879127
Si 2.104891 0.216421 8.416765
Si 4.618525 1.713015 2.147973
Si 7.861081 3.065878 8.965913
Si 7.856810 4.127791 1.285377
Si 3.679771 6.522284 3.284448
Si 4.017046 9.392648 5.318872
Si 5.688000 7.664395 4.240225
Si 10.724436 2.428668 3.012212
Si 5.695880 10.285645 9.493011
Si 5.159984 6.810242 9.747739
Si 9.551193 4.103554 9.681567
Si 1.099557 6.477389 5.479846
Si 3.376605 1.228613 5.341084
Si 4.169294 3.850578 4.720635
Si 8.356698 9.882785 5.765861
Si 9.885463 6.597129 10.611542
Si 1.035115 8.489237 8.213904
Si 1.944697 5.949210 10.133674
Si 7.915534 9.268486 3.328165
Si 0.012816 0.642801 6.658070
Si 3.266061 7.922689 7.960527
Si 3.800633 4.319023 0.379793
Si 7.055864 8.141092 9.727040
Si 0.142032 8.502709 5.297476
Si 8.111376 8.310613 0.862495
Si 9.018537 7.183780 8.240800
Si 7.490536 1.986614 0.245555
Si 1.397956 0.901487 4.334205
Si 5.407904 10.706142 3.735026
Si 4.319191 10.594369 7.804692
Si 10.649274 8.727137 10.420317
Si 10.364582 10.244285 3.147083
Si 9.113876 9.771787 7.991600
Si 5.403553 2.557714 8.143852
Si 4.957800 8.741384 1.721010
Si 4.784037 4.966514 2.514012
Si 2.241939 2.772087 7.288487
Si 9.659927 5.124929 2.109768
Si 5.847720 0.936269 6.158456
Si 9.652349 5.579899 6.130268
Si 1.287673 5.580309 2.693435
Si 1.390466 3.860587 5.237070
Si 8.959708 7.211591 3.788824
Si 6.555768 3.219188 3.590266
Si 10.818350 7.748737 2.453345
Si 6.151165 6.573206 1.284617
Si 5.146302 2.392672 10.693772
Si 2.473637 7.486968 0.664548
64
Step 1090
Si 10.215286 10.847186 1.085713
Si 7.472839 3.903286 6.527438
Si 2.472875 1.687682 2.054508
Si 1.221170 4.217427 0.970140
Si 9.763713 3.163735 7.002064
Si 6.158401 5.683410 7.140716
Si 9.821094 2.032026 0.584304
Si 4.375841 4.615653 7.090326
Si 2.397306 5.780646 7.733412
Si 2.284261 8.634608 3.768203
Si 6.136052 4.924969 9.591769
Si 8.336672 1.699272 5.007792
Si 6.544698 10.595807 1.037390
Si 0.764558 3.614672 9.305401
Si 3.060517 9.963524 1.817118
Si 7.606881 7.238971 5.975940
Si 2.107929 0.158543 8.479769
Si 4.775513 1.768432 2.092176
Si 7.870801 2.956886 8.860663
Si 7.893924 4.104186 1.159993
Si 3.579610 6.612620 3.194163
Si 4.073056 9.330182 5.343611
Si 5.815861 7.580344 4.206706
Si 10.681390 2.334480 3.018181
Si 5.694872 10.064635 9.470511
Si 5.159884 6.770532 9.850947
Si 9.581614 4.080987 9.735226
Si 1.009701 6.569703 5.343351
Si 3.285587 1.279075 5.349993
Si 3.954127 3.767096 4.817683
Si 8.444926 9.997953 5.761674
Si 9.849306 6.460625 10.547857
Si 1.000233 8.581342 8.191428
Si 2.024934 5.946588 10.057380
Si 7.829547 9.132340 3.261854
Si 0.035662 0.628177 6.594617
Si 3.252359 7.972406 8.054128
Si 3.684103 4.215219 0.318143
Si 7.063617 8.210244 9.679481
Si 0.197561 8.505341 5.160467
Si 8.042335 8.317606 1.008420
Si 8.991196 7.233120 8.193524
Si 7.359860 1.843127 0.307149
Si 1.427247 0.891770 4.321914
Si 5.448463 10.734063 3.913258
Si 4.331927 10.645623 7.791826
Si 10.612097 8.769748 10.516194
Si 10.495639 10.337528 3.163392
Si 9.072786 9.707042 7.917795
Si 5.354240 2.548553 8.150543
Si 4.996810 8.697494 1.543641
Si 4.692653 4.959568 2.476289
Si 2.143844 2.743927 7.254806
Si 9.657458 5.172794 2.214224
Si 6.121313 0.874393 6.121701
Si 9.657573 5.620883 6.245362
Si 1.265969 5.570273 2.708512
Si 1.285755 3.978809 5.212221
Si 8.964659 7.114896 3.731191
Si 6.592680 3.294497 3.490729
Si 10.784084 7.863906 2.365401
Si 6.131773 6.764461 1.269946
Si 5.113301 2.463801 10.795952
Si 2.404075 7.529312 0.765762
64
Step 1100
Si 10.223575 10.747850 1.066255
Si 7.494715 3.883429 6.645093
Si 2.661961 1.765510 2.146084
Si 1.253650 4.165459 1.075806
Si 9.768670 3.231622 7.055477
Si 6.254872 5.665365 7.154263
Si 9.717084 2.013931 0.559366
Si 4.263298 4.452496 7.101710
Si 2.433607 5.755044 7.657668
Si 2.401452 8.767551 3.575106
Si 6.175103 4.847415 9.572739
Si 8.446724 1.653080 5.008254
Si 6.465926 10.567017 1.021507
Si 0.874968 3.733720 9.269225
Si 3.158057 10.064796 1.916093
Si 7.802758 7.243421 6.052986
Si 2.059308 0.126531 8.489526
Si 4.966258 1.831450 2.158504
Si 7.808566 2.783744 8.758336
Si 7.862551 4.149524 1.063999
Si 3.451488 6.752195 3.114078
Si 4.092832 9.237736 5.422015
Si 5.929147 7.534952 4.163096
Si 10.601748 2.406794 3.031094
Si 5.711143 9.858160 9.475545
Si 5.002858 6.890151 9.974397
Si 9.608792 4.158524 9.880430
Si 0.937162 6.499876 5.300392
Si 3.249544 1.301406 5.417083
Si 3.739027 3.663553 4.902107
Si 8.536215 10.083882 5.668615
Si 9.841328 6.305062 10.468845
Si 0.896534 8.753932 8.164485
Si 2.091932 5.969115 9.927049
Si 7.709576 9.087480 3.283654
Si 0.047133 0.619744 6.525945
Si 3.292325 8.035947 8.102643
Si 3.580400 4.173157 0.258448
Si 7.125510 8.283572 9.512704
Si 0.187557 8.660419 5.095776
Si 8.024077 8.330706 1.122691
Si 8.979747 7.298194 8.181414
Si 7.275179 1.639587 0.350106
Si 1.475751 0.839525 4.345972
Si 5.463924 10.727062 3.967670
Si 4.313115 10.683685 7.703849
Si 10.612828 8.841345 10.561061
Si 10.603277 10.370484 3.230022
Si 9.131984 9.640130 7.955889
Si 5.251008 2.465943 8.135395
Si 4.935626 8.706458 1.433422
Si 4.608938 4.902646 2.422798
Si 2.031976 2.659515 7.260102
Si 9.611496 5.175974 2.313312
Si 6.391824 0.834536 6.134658
Si 9.708882 5.654531 6.355212
Si 1.281902 5.527135 2.784894
Si 1.136426 4.059579 5.105634
Si 8.953899 6.983170 3.717845
Si 6.621243 3.366926 3.402555
Si 10.783053 7.927606 2.160040
Si 6.166405 6.817178 1.313729
Si 5.055848 2.522731 10.847952
Si 2.302259 7.608743 0.879363
64
Step 1110
Si 10.215358 10.666975 0.989613
Si 7.495494 3.762095 6.640001
Si 2.758396 1.845349 2.285763
Si 1.230350 3.966140 1.182180
Si 9.935193 3.223426 7.047552
Si 6.318260 5.731661 7.144718
Si 9.648707 2.025916 0.579743
Si 4.159356 4.275529 7.090966
Si 2.447890 5.744312 7.530377
Si 2.473206 8.958020 3.510120
Si 6.232193 4.750848 9.609548
Si 8.610061 1.742400 4.972589
Si 6.389726 10.477176 1.020340
Si 1.038292 3.808815 9.174325
Si 3.240840 10.232304 2.023796
Si 7.907585 7.268783 6.099233
Si 2.000681 0.112057 8.446551
Si 5.156759 1.923508 2.380761
Si 7.715404 2.561785 8.721674
Si 7.795523 4.274708 1.009274
Si 3.347462 6.857911 3.062165
Si 4.089601 9.138215 5.533795
Si 6.000109 7.556999 4.100606
Si 10.529450 2.559156 3.043200
Si 5.703782 9.694067 9.494047
Si 4.802557 6.970989 10.060394
Si 9.631402 4.219513 10.061691
Si 0.858563 6.426264 5.315498
Si 3.315596 1.273982 5.517895
Si 3.570295 3.562552 4.913852
Si 8.694840 10.056223 5.547353
Si 9.818358 6.253772 10.426738
Si 0.748080 8.953311 8.128224
Si 2.144013 6.054797 9.814341
Si 7.602768 9.088912 3.394695
Si 0.048217 0.577359 6.466956
Si 3.341074 8.097779 8.118135
Si 3.521487 4.173793 0.205997
Si 7.215533 8.308617 9.338435
Si 0.124788 8.824736 5.090507
Si 8.072809 8.318372 1.145988
Si 9.035756 7.365931 8.243331
Si 7.288099 1.460732 0.327301
Si 1.482053 0.823818 4.340104
Si 5.440734 10.729671 3.982165
Si 4.315046 10.738047 7.574155
Si 10.620264 8.891601 10.532713
Si 10.651703 10.408067 3.336408
Si 9.275272 9.645790 7.976835
Si 5.134466 2.353306 8.091256
Si 4.855523 8.770914 1.317959
Si 4.567120 4.817695 2.391933
Si 1.844600 2.532092 7.304208
Si 9.557302 5.141526 2.378570
Si 6.569221 0.828512 6.211728
Si 9.829369 5.700951 6.407173
Si 1.282347 5.484661 2.901063
Si 0.977713 4.061547 4.989029
Si 8.986814 6.844323 3.775853
Si 6.607400 3.430805 3.339074
Si 10.817270 7.930486 1.949270
Si 6.236755 6.746424 1.412255
Si 4.960149 2.602373 10.802022
Si 2.160983 7.679601 0.897942
64
Step 1120
Si 10.189873 10.681273 0.958262
Si 7.448104 3.664606 6.614193
Si 2.830089 1.969967 2.434592
Si 1.164026 3.710746 1.286018
Si 10.170509 3.220856 7.033738
Si 6.357810 5.767372 7.173854
Si 9.582618 2.016891 0.651435
Si 4.102798 4.106599 7.055664
Si 2.438441 5.768761 7.348688
Si 2.454779 9.108870 3.634695
Si 6.301125 4.674386 9.621118
Si 8.776426 1.909934 4.847381
Si 6.352373 10.382885 1.043151
Si 1.193962 3.837595 9.074652
Si 3.355641 10.483478 2.059122
Si 7.908041 7.294134 6.081208
Si 1.942511 0.118178 8.400194
Si 5.329390 1.974832 2.625050
Si 7.603095 2.323890 8.743474
Si 7.655773 4.397829 0.958456
Si 3.300784 6.880706 3.011119
Si 4.096350 9.013888 5.617167
Si 5.989856 7.604359 4.019355
Si 10.435525 2.713314 3.053273
Si 5.659151 9.599303 9.488081
Si 4.558152 6.981316 10.104487
Si 9.641789 4.180237 10.190228
Si 0.771133 6.420891 5.373849
Si 3.429255 1.247563 5.596176
Si 3.420938 3.465946 4.860025
Si 8.805573 9.960586 5.423342
Si 9.842866 6.328271 10.430729
Si 0.673025 9.156631 8.072246
Si 2.141029 6.151344 9.772289
Si 7.512293 9.138891 3.519666
Si 0.081511 0.551710 6.418986
Si 3.405403 8.138452 8.127022
Si 3.463992 4.238807 0.173792
Si 7.282553 8.292973 9.219549
Si 0.060129 8.911772 5.123913
Si 8.154688 8.281670 1.121762
Si 9.125218 7.354154 8.348527
Si 7.321635 1.377040 0.244200
Si 1.484732 0.831567 4.320563
Si 5.403121 10.744230 4.022829
Si 4.350760 10.815728 7.471094
Si 10.646511 8.895894 10.393002
Si 10.661939 10.469854 3.364798
Si 9.431227 9.749601 7.968719
Si 5.027042 2.253010 8.060699
Si 4.736038 8.817227 1.223001
Si 4.532194 4.783876 2.396536
Si 1.671557 2.401921 7.390179
Si 9.552958 5.076384 2.413059
Si 6.696076 0.843274 6.298598
Si 9.947503 5.712247 6.489821
Si 1.293049 5.522833 2.980900
Si 0.865600 3.940924 4.884657
Si 9.055796 6.759506 3.856098
Si 6.608970 3.483262 3.303713
Si 0.024267 7.833108 1.832229
Si 6.315414 6.598073 1.549990
Si 4.905597 2.651376 10.718587
Si 2.043434 7.721192 0.828183
64
Step 1130
Si 10.149676 10.684400 0.980802
Si 7.424197 3.609105 6.604929
Si 2.913616 2.170508 2.533655
Si 1.120999 3.450196 1.330107
Si 10.286904 3.240087 6.994989
Si 6.393052 5.741085 7.247644
Si 9.529570 1.987571 0.765227
Si 4.023607 3.996565 7.005167
Si 2.475685 5.849370 7.137453
Si 2.428197 9.207075 3.791372
Si 6.335086 4.603071 9.575377
Si 8.920648 2.109697 4.737669
Si 6.371347 10.284175 1.098149
Si 1.339961 3.884855 9.092005
Si 3.500395 10.728913 2.069037
Si 7.821117 7.298193 6.018677
Si 1.967582 0.161451 8.386812
Si 5.479937 1.947493 2.796464
Si 7.507731 2.107562 8.794598
Si 7.459665 4.511520 0.920465
Si 3.310344 6.882574 2.946902
Si 4.145514 8.863085 5.633419
Si 5.961801 7.654625 3.950693
Si 10.290065 2.822354 3.110918
Si 5.585784 9.536024 9.401471
Si 4.394042 6.976236 10.169890
Si 9.698811 4.100758 10.271561
Si 0.744324 6.507979 5.430335
Si 3.549219 1.202999 5.681235
Si 3.291860 3.416892 4.753597
Si 8.789345 9.857578 5.335900
Si 9.883133 6.396309 10.471162
Si 0.746815 9.278946 7.992076
Si 2.061183 6.218630 9.777268
Si 7.421338 9.224672 3.625496
Si 0.129550 0.633313 6.332757
Si 3.468823 8.191516 8.086109
Si 3.354548 4.321965 0.177830
Si 7.221969 8.299330 9.219389
Si 0.000136 8.818866 5.127649
Si 8.238918 8.260133 1.059110
Si 9.218489 7.190208 8.424613
Si 7.329160 1.372384 0.140973
Si 1.488009 0.892620 4.300198
Si 5.387012 10.747215 4.081657
Si 4.409457 10.860911 7.428352
Si 10.686744 8.964359 10.281968
Si 10.652150 10.514194 3.195336
Si 9.476594 9.942215 7.940722
Si 4.987010 2.206697 8.093770
Si 4.517498 8.795194 1.173063
Si 4.451146 4.806938 2.441742
Si 1.550583 2.277757 7.466678
Si 9.568340 5.001658 2.393260
Si 6.822285 0.843220 6.339288
Si 9.951514 5.655866 6.650120
Si 1.376067 5.602484 3.022999
Si 0.823530 3.707955 4.781391
Si 9.138981 6.785371 3.932456
Si 6.656999 3.570193 3.253456
Si 0.034430 7.686285 1.882448
Si 6.346884 6.422253 1.691652
Si 4.911095 2.672938 10.618205
Si 2.063550 7.751406 0.752270
64
Step 1140
Si 10.119699 10.640669 0.997430
Si 7.437102 3.574537 6.593676
Si 2.996958 2.387139 2.578864
Si 1.128369 3.232288 1.289101
Si 10.283284 3.318769 6.922893
Si 6.403617 5.643246 7.302440
Si 9.433033 1.949749 0.844589
Si 3.943012 3.946755 6.931633
Si 2.555755 5.918135 6.932965
Si 2.411733 9.297869 3.949145
Si 6.368502 4.578931 9.563889
Si 8.968832 2.264622 4.710153
Si 6.429789 10.167554 1.165069
Si 1.463896 3.940218 9.164296
Si 3.652543 0.057776 2.062511
Si 7.700203 7.270492 5.959341
Si 2.099685 0.205801 8.439921
Si 5.617463 1.880801 2.894177
Si 7.437375 1.927420 8.859009
Si 7.252421 4.588277 0.862345
Si 3.390598 6.897871 2.882162
Si 4.204988 8.692535 5.629746
Si 5.914407 7.701791 3.894754
Si 10.098519 2.853072 3.171090
Si 5.405790 9.518909 9.321395
Si 4.423539 6.952285 10.225260
Si 9.783257 3.980265 10.350091
Si 0.738224 6.593095 5.501935
Si 3.658815 1.151138 5.667042
Si 3.198864 3.424872 4.688055
Si 8.715066 9.778864 5.276071
Si 9.938873 6.447090 10.538347
Si 0.927101 9.304564 7.886452
Si 1.893726 6.302091 9.787477
Si 7.344563 9.323939 3.652360
Si 0.111446 0.737362 6.154491
Si 3.494155 8.223083 7.998911
Si 3.241513 4.389644 0.219112
Si 7.248780 8.254980 9.279686
Si 10.813811 8.641094 5.127996
Si 8.282748 8.245701 0.978680
Si 9.260861 7.017345 8.461698
Si 7.312099 1.419385 0.051085
Si 1.482684 0.947678 4.280256
Si 5.383095 10.770322 4.177148
Si 4.486971 0.001819 7.456767
Si 10.732714 9.100792 10.241576
Si 10.634921 10.529811 2.948953
Si 9.367371 10.120020 7.913206
Si 4.966948 2.223078 8.199714
Si 4.317145 8.758315 1.137909
Si 4.344913 4.822559 2.507084
Si 1.571515 2.223431 7.572442
Si 9.556062 4.988108 2.337967
Si 6.955444 0.814874 6.309374
Si 9.880663 5.568423 6.818761
Si 1.477325 5.676365 3.091830
Si 0.874318 3.476694 4.740741
Si 9.193341 6.846757 4.010902
Si 6.728127 3.718019 3.186734
Si 10.854304 7.556978 2.008949
Si 6.363193 6.320415 1.780988
Si 4.936280 2.675187 10.553778
Si 2.095669 7.802331 0.679561
64
Step 1150
Si 10.024705 10.623650 0.892683
Si 7.468832 3.528850 6.539148
Si 3.101157 2.571633 2.534294
Si 1.142130 3.080280 1.264414
Si 10.239831 3.435577 6.836051
Si 6.403468 5.498614 7.370155
Si 9.308422 1.916932 0.855726
Si 3.862566 3.953436 6.885507
Si 2.632106 6.003634 6.787666
Si 2.393052 9.375722 4.109067
Si 6.391842 4.613892 9.524616
Si 8.778889 2.328242 4.890285
Si 6.493516 10.069722 1.235161
Si 1.539103 3.975400 9.221131
Si 3.771125 0.183642 2.049347
Si 7.584524 7.211327 5.976300
Si 2.251221 0.207027 8.551596
Si 5.801271 1.797594 2.960402
Si 7.404919 1.818324 8.823674
Si 7.138286 4.573858 0.737105
Si 3.513373 6.985476 2.864773
Si 4.259797 8.531939 5.612566
Si 5.859105 7.752949 3.826890
Si 10.042481 2.870635 3.034659
Si 5.229671 9.493363 9.273515
Si 4.599157 6.850247 10.250755
Si 9.909529 3.851315 10.471616
Si 0.795090 6.579788 5.599039
Si 3.733347 1.063208 5.600626
Si 3.164738 3.489941 4.688283
Si 8.640330 9.731747 5.247342
Si 10.025448 6.440874 10.622700
Si 1.112978 9.317520 7.765498
Si 1.674093 6.417678 9.753130
Si 7.242765 9.403584 3.584519
Si 0.010787 0.744435 5.949080
Si 3.462673 8.152468 7.900665
Si 3.178822 4.429350 0.261688
Si 7.355160 8.203096 9.302734
Si 10.809679 8.532218 5.125902
Si 8.270619 8.269604 0.909563
Si 9.230469 6.951831 8.489122
Si 7.235894 1.453855 0.095023
Si 1.483302 0.893594 4.231616
Si 5.413889 10.821973 4.307165
Si 4.614244 0.015918 7.511661
Si 10.783616 9.226504 10.180296
Si 10.663495 10.512424 2.878796
Si 9.180965 10.234218 7.909363
Si 4.954720 2.290964 8.307721
Si 4.177308 8.729856 1.132896
Si 4.247203 4.842615 2.548962
Si 1.711966 2.273494 7.666090
Si 9.485120 5.010762 2.213408
Si 7.118474 0.782416 6.289300
Si 9.788600 5.465541 6.941778
Si 1.469832 5.744348 3.196806
Si 0.919009 3.343282 4.745948
Si 9.213534 6.888399 4.057289
Si 6.847963 3.862716 3.188368
Si 10.807284 7.485189 2.149910
Si 6.348248 6.328590 1.832344
Si 4.923242 2.670197 10.542803
Si 2.069034 7.876525 0.615448
64
Step 1160
Si 9.881235 10.668427 0.760922
Si 7.447881 3.573311 6.537037
Si 3.214601 2.664252 2.454757
Si 1.185528 2.975192 1.243647
Si 10.301576 3.477878 6.761148
Si 6.400494 5.336219 7.392669
Si 9.192592 1.884495 0.866695
Si 3.816420 3.979638 6.899645
Si 2.750012 6.099106 6.735106
Si 2.414925 9.416617 4.244971
Si 6.380679 4.680153 9.455204
Si 8.520442 2.347542 5.025054
Si 6.494622 10.008857 1.248710
Si 1.528206 3.983332 9.267897
Si 3.848894 0.245779 2.056571
Si 7.473797 7.103642 6.069093
Si 2.378270 0.234623 8.691773
Si 6.048311 1.760524 2.939099
Si 7.428183 1.715507 8.716876
Si 7.111180 4.506193 0.592619
Si 3.602725 7.141205 2.934288
Si 4.307755 8.370009 5.624096
Si 5.824996 7.754472 3.760816
Si 10.014105 2.853653 2.860975
Si 5.097509 9.414835 9.298173
Si 4.814077 6.699875 10.275071
Si 10.040841 3.761836 10.600062
Si 0.853618 6.505288 5.708943
Si 3.750658 0.973164 5.545567
Si 3.217096 3.580198 4.741045
Si 8.608330 9.731085 5.235639
Si 10.132650 6.444090 10.680311
Si 1.202617 9.321296 7.625870
Si 1.475298 6.536492 9.654257
Si 7.160905 9.464418 3.505124
Si 10.687174 0.636602 5.871055
Si 3.400134 8.009331 7.783549
Si 3.180158 4.511386 0.282645
Si 7.474902 8.178610 9.304801
Si 0.024104 8.554763 5.111700
Si 8.267635 8.275630 0.821624
Si 9.152523 6.925001 8.521040
Si 7.050492 1.428244 0.247753
Si 1.507721 0.764702 4.114094
Si 5.440208 0.016611 4.462556
Si 4.751396 0.083573 7.578334
Si 10.827717 9.292995 9.988732
Si 10.685123 10.431478 2.943854
Si 9.026023 10.357020 7.908080
Si 4.936673 2.388993 8.319883
Si 4.118849 8.718051 1.101020
Si 4.217766 4.891803 2.569677
Si 1.873337 2.327784 7.688211
Si 9.393977 4.990085 2.109433
Si 7.295385 0.702516 6.302511
Si 9.656893 5.454779 7.000851
Si 1.420484 5.775725 3.335266
Si 0.883125 3.309939 4.777836
Si 9.105808 6.909002 4.095956
Si 7.011645 3.950237 3.224775
Si 10.786678 7.504325 2.247578
Si 6.286197 6.445374 1.809750
Si 4.935758 2.689446 10.627017
Si 1.989103 7.984792 0.562672
64
Step 1170
Si 9.748023 10.687201 0.664883
Si 7.436269 3.663997 6.516001
Si 3.328036 2.651918 2.389708
Si 1.250681 2.891997 1.190178
Si 10.434520 3.486352 6.681389
Si 6.348757 5.246326 7.323519
Si 9.076760 1.826631 0.865183
Si 3.777624 4.030267 6.970554
Si 2.874442 6.158725 6.730325
Si 2.482816 9.462818 4.374987
Si 6.288996 4.762722 9.407306
Si 8.303580 2.312484 5.042605
Si 6.452818 9.997586 1.210425
Si 1.476534 3.968230 9.337187
Si 3.915393 0.266379 2.096938
Si 7.340315 6.989732 6.131324
Si 2.503891 0.304746 8.787728
Si 6.303396 1.751608 2.854943
Si 7.465535 1.628477 8.640556
Si 7.142768 4.413072 0.543092
Si 3.603968 7.312998 3.028957
Si 4.385764 8.293769 5.647128
Si 5.834594 7.708040 3.770054
Si 10.000595 2.817901 2.752837
Si 4.992098 9.241168 9.365403
Si 5.025355 6.573224 10.293790
Si 10.191968 3.697924 10.675407
Si 0.860046 6.395241 5.847970
Si 3.699459 0.881586 5.552462
Si 3.275131 3.638545 4.791940
Si 8.627374 9.692499 5.204916
Si 10.189652 6.479885 10.696394
Si 1.223960 9.350894 7.481494
Si 1.337527 6.691538 9.552259
Si 7.096899 9.467237 3.431653
Si 10.510890 0.519226 5.859503
Si 3.320074 7.845182 7.713906
Si 3.213512 4.676244 0.232526
Si 7.575750 8.233330 9.348833
Si 0.155464 8.624071 5.126120
Si 8.320099 8.261390 0.705575
Si 9.088281 6.969554 8.608473
Si 6.805230 1.403810 0.410183
Si 1.562231 0.647395 3.967259
Si 5.455152 0.080413 4.597481
Si 4.882660 0.206203 7.621137
Si 10.840639 9.275357 9.737465
Si 10.649436 10.329481 2.996112
Si 8.933105 10.404601 7.977104
Si 4.900869 2.485507 8.302176
Si 4.111580 8.705521 1.018644
Si 4.239111 4.983623 2.594533
Si 2.042545 2.335046 7.661434
Si 9.315489 4.980202 2.060171
Si 7.404075 0.579457 6.309380
Si 9.563163 5.433105 6.985757
Si 1.382982 5.729772 3.482283
Si 0.818994 3.306342 4.816307
Si 8.938935 6.960805 4.134022
Si 7.137147 4.017410 3.263670
Si 10.789533 7.600020 2.316483
Si 6.254149 6.573464 1.719825
Si 4.940847 2.700096 10.800909
Si 1.860533 8.111660 0.503219
64
Step 1180
Si 9.682631 10.609557 0.582390
Si 7.506466 3.645369 6.462747
Si 3.464353 2.558705 2.314547
Si 1.330892 2.815331 1.153678
Si 10.588040 3.413046 6.636197
Si 6.213706 5.303792 7.251895
Si 8.911097 1.781399 0.827064
Si 3.751351 4.131509 7.052887
Si 2.863014 6.019260 6.707011
Si 2.586507 9.454527 4.488282
Si 6.179005 4.877761 9.398763
Si 8.173215 2.204617 4.970515
Si 6.372195 9.983619 1.150660
Si 1.433589 3.951094 9.369772
Si 3.976477 0.232443 2.255682
Si 7.193354 6.951269 6.191712
Si 2.618829 0.378189 8.825971
Si 6.521146 1.780738 2.801505
Si 7.478960 1.579544 8.599708
Si 7.258122 4.294825 0.542299
Si 3.497509 7.482211 3.111829
Si 4.539930 8.364306 5.689100
Si 5.939530 7.647022 3.828742
Si 10.028351 2.783924 2.771441
Si 4.915006 9.034953 9.447723
Si 5.197530 6.490220 10.297727
Si 10.333363 3.664777 10.693792
Si 0.871366 6.281772 5.952977
Si 3.582659 0.842508 5.603224
Si 3.316303 3.626464 4.788979
Si 8.648751 9.570377 5.094386
Si 10.201866 6.526443 10.708366
Si 1.233000 9.429928 7.335691
Si 1.267616 6.820199 9.438712
Si 7.037124 9.435806 3.344573
Si 10.376691 0.480940 5.853587
Si 3.265866 7.810974 7.770765
Si 3.293542 4.871211 0.149572
Si 7.622759 8.352685 9.373931
Si 0.307966 8.604553 5.171485
Si 8.406702 8.265046 0.664154
Si 9.027671 7.024636 8.656725
Si 6.563651 1.378469 0.553766
Si 1.603968 0.615267 3.795290
Si 5.497307 0.139260 4.648568
Si 4.954919 0.316042 7.704696
Si 10.793899 9.256583 9.486026
Si 10.578767 10.225266 3.000847
Si 8.910427 10.375795 8.155382
Si 4.916551 2.577013 8.341352
Si 4.104620 8.740424 0.915501
Si 4.276596 5.073026 2.623258
Si 2.158122 2.318397 7.625771
Si 9.255544 5.043599 2.087092
Si 7.429294 0.469095 6.246537
Si 9.517074 5.400127 6.931908
Si 1.345887 5.656950 3.654688
Si 0.743008 3.279643 4.811310
Si 8.782831 7.036132 4.118322
Si 7.213839 4.099719 3.283290
Si 10.763391 7.704245 2.381629
Si 6.279688 6.661520 1.581835
Si 4.873386 2.731210 0.101812
Si 1.731197 8.246668 0.480338
64
Step 1190
Si 9.598108 10.559659 0.509093
Si 7.583311 3.639572 6.458709
Si 3.570908 2.445988 2.254623
Si 1.460330 2.755612 1.173884
Si 10.683601 3.259477 6.734541
Si 6.040530 5.362200 7.166821
Si 8.781475 1.685080 0.779125
Si 3.804913 4.109645 7.156522
Si 2.820729 5.895625 6.674779
Si 2.721695 9.435060 4.569749
Si 6.170754 4.889058 9.296991
Si 8.155758 2.082858 4.840132
Si 6.340287 9.897069 1.068270
Si 1.432142 3.953071 9.352191
Si 4.007072 0.173536 2.452502
Si 7.068870 6.987747 6.244325
Si 2.718995 0.400850 8.848932
Si 6.694785 1.825366 2.883538
Si 7.441129 1.567272 8.595614
Si 7.458590 4.152678 0.559202
Si 3.316613 7.624510 3.155351
Si 4.739007 8.511231 5.790945
Si 6.054523 7.529731 3.899581
Si 10.060922 2.721274 2.866436
Si 4.840838 8.853122 9.481949
Si 5.228990 6.554330 10.344682
Si 10.457976 3.652128 10.694688
Si 0.788893 6.248553 5.970997
Si 3.452992 0.857981 5.673071
Si 3.334389 3.563179 4.737754
Si 8.661021 9.412806 4.949597
Si 10.185124 6.544496 10.735996
Si 1.281036 9.518836 7.248448
Si 1.300139 6.895661 9.287189
Si 7.016593 9.431384 3.236424
Si 10.309866 0.539883 5.822364
Si 3.193079 7.871758 7.877659
Si 3.373024 5.039766 0.077864
Si 7.576925 8.509258 9.345155
Si 0.456956 8.495787 5.262887
Si 8.451473 8.330900 0.742969
Si 8.996740 7.039726 8.624032
Si 6.330029 1.343779 0.578636
Si 1.614798 0.652945 3.617836
Si 5.558781 0.169731 4.640865
Si 5.008465 0.380729 7.826012
Si 10.711745 9.274263 9.212805
Si 10.489162 10.162224 2.978940
Si 8.923248 10.312357 8.380136
Si 5.042642 2.658136 8.426827
Si 4.017972 8.797523 0.836955
Si 4.287201 5.148061 2.621305
Si 2.193640 2.327705 7.595204
Si 9.250104 5.142150 2.142061
Si 7.359114 0.342585 6.147550
Si 9.432462 5.394650 6.854881
Si 1.348566 5.583118 3.847467
Si 0.739182 3.204575 4.640015
Si 8.670620 7.097085 4.107456
Si 7.245155 4.206511 3.315557
Si 10.745740 7.768846 2.450178
Si 6.322394 6.752399 1.443569
Si 4.748391 2.794641 0.211590
Si 1.637507 8.384263 0.538554
64
Step 1200
Si 9.516559 10.471163 0.458824
Si 7.643994 3.637345 6.535852
Si 3.655475 2.371264 2.205635
Si 1.601327 2.709248 1.231817
Si 10.764468 3.083480 6.854714
Si 5.886351 5.348566 7.065489
Si 8.707707 1.661259 0.688876
Si 3.837583 4.019373 7.242649
Si 2.777495 5.911965 6.673615
Si 2.866712 9.404722 4.644052
Si 6.255002 4.809670 9.204666
Si 8.237185 1.993678 4.717680
Si 6.295307 9.793747 0.940484
Si 1.476644 4.012580 9.321756
Si 4.067982 0.082914 2.632307
Si 7.036810 7.083197 6.337075
Si 2.846941 0.399259 8.833449
Si 6.812641 1.890239 3.011976
Si 7.425407 1.558092 8.647304
Si 7.641251 3.992953 0.549473
Si 3.134098 7.708719 3.167303
Si 4.903588 8.665148 5.941799
Si 6.062789 7.342296 3.901898
Si 10.096840 2.645399 2.927464
Si 4.766995 8.733559 9.460047
Si 5.170928 6.653111 10.347225
Si 10.507143 3.668485 10.771996
Si 0.642315 6.258307 5.997966
Si 3.324250 0.881696 5.773406
Si 3.333934 3.501530 4.609016
Si 8.719540 9.272202 4.811467
Si 10.158727 6.530827 10.792396
Si 1.319217 9.640309 7.187059
Si 1.402456 6.910613 9.145328
Si 6.994264 9.505822 3.150340
Si 10.301150 0.598477 5.772777
Si 3.123730 7.898326 7.949664
Si 3.414031 5.166406 0.031092
Si 7.490915 8.703519 9.300561
Si 0.570152 8.399531 5.366390
Si 8.486672 8.422812 0.829047
Si 8.981459 6.988011 8.533655
Si 6.092453 1.307925 0.530150
Si 1.533539 0.741045 3.449142
Si 5.573642 0.173463 4.596691
Si 5.023023 0.380859 7.968316
Si 10.702966 9.279905 8.959673
Si 10.399828 10.128349 2.961147
Si 8.908484 10.289544 8.567141
Si 5.249612 2.724861 8.572367
Si 3.861111 8.876841 0.839186
Si 4.259302 5.267311 2.623803
Si 2.163860 2.334010 7.569941
Si 9.333350 5.252863 2.182476
Si 7.244423 0.201258 6.093937
Si 9.345374 5.442757 6.765561
Si 1.417429 5.548365 3.960937
Si 0.759464 3.091258 4.441583
Si 8.643701 7.061282 4.113765
Si 7.248412 4.343614 3.352723
Si 10.753593 7.768044 2.511870
Si 6.360485 6.801785 1.344283
Si 4.655644 2.878651 0.274019
Si 1.520288 8.498188 0.615683
64
Step 1210
Si 9.479557 10.357703 0.475156
Si 7.729384 3.643195 6.604615
Si 3.762272 2.346951 2.189905
Si 1.684986 2.672824 1.315256
Si 10.824631 2.878310 6.929589
Si 5.756335 5.308927 6.930051
Si 8.647386 1.721950 0.593550
Si 3.800681 3.881371 7.269587
Si 2.745195 5.951558 6.683460
Si 2.984299 9.382267 4.732760
Si 6.417553 4.750589 9.235177
Si 8.411888 1.943565 4.650124
Si 6.212364 9.719848 0.819032
Si 1.542342 4.142839 9.335310
Si 4.154331 10.821708 2.763331
Si 7.017249 7.236357 6.444858
Si 2.979305 0.414873 8.789001
Si 6.902523 1.959653 3.072598
Si 7.472394 1.519180 8.700422
Si 7.773048 3.866449 0.531372
Si 2.974085 7.732666 3.103856
Si 5.058097 8.864062 6.145759
Si 5.996658 7.115034 3.832839
Si 10.121749 2.578223 2.892813
Si 4.691595 8.662270 9.368576
Si 5.104509 6.656744 10.256953
Si 10.507693 3.695752 0.049566
Si 0.427710 6.272864 6.051065
Si 3.186560 0.902372 5.869987
Si 3.331849 3.438729 4.435979
Si 8.811787 9.172582 4.711693
Si 10.151176 6.541439 10.861229
Si 1.391643 9.777188 7.135831
Si 1.490806 6.854948 9.091553
Si 6.989371 9.616677 3.068224
Si 10.296870 0.652896 5.665300
Si 3.116384 7.973643 7.994998
Si 3.400240 5.288403 10.838268
Si 7.380086 8.887320 9.246511
Si 0.615972 8.373983 5.437659
Si 8.527495 8.456220 0.918341
Si 8.967548 6.943373 8.430870
Si 5.937768 1.215367 0.497576
Si 1.396762 0.810154 3.335123
Si 5.532640 0.163738 4.531449
Si 5.035823 0.290708 8.074681
Si 10.792170 9.209205 8.769553
Si 10.310838 10.130518 2.930690
Si 8.780213 10.371764 8.675006
Si 5.433046 2.767879 8.757168
Si 3.646938 8.985681 0.936053
Si 4.236249 5.404068 2.656757
Si 2.141384 2.294491 7.554060
Si 9.445530 5.311276 2.176848
Si 7.145632 0.062112 6.173426
Si 9.277935 5.473756 6.652655
Si 1.527279 5.499300 3.962877
Si 0.811396 2.985351 4.265740
Si 8.672435 6.946686 4.136360
Si 7.211217 4.522776 3.400257
Si 10.802665 7.740074 2.616588
Si 6.429926 6.824656 1.310779
Si 4.534652 3.020352 0.332874
Si 1.367912 8.576587 0.640438
64
Step 1220
Si 9.512664 10.275282 0.470806
Si 7.839522 3.635856 6.650683
Si 3.835766 2.326175 2.286225
Si 1.672041 2.668327 1.362950
Si 10.861867 2.708763 6.976875
Si 5.601717 5.262963 6.796732
Si 8.525127 1.747642 0.527681
Si 3.758191 3.782030 7.259438
Si 2.756522 5.957138 6.615805
Si 3.061719 9.363791 4.802335
Si 6.640513 4.772369 9.307457
Si 8.561184 1.919658 4.601121
Si 6.084541 9.699003 0.737035
Si 1.618026 4.265727 9.394359
Si 4.201531 10.729807 2.797506
Si 6.979517 7.421374 6.568031
Si 3.020682 0.469098 8.761540
Si 7.018417 2.039346 3.072959
Si 7.565797 1.455193 8.729240
Si 7.824405 3.837408 0.539801
Si 2.817671 7.690978 3.041041
Si 5.189804 9.050238 6.396752
Si 5.911945 6.910283 3.773389
Si 9.996472 2.574960 2.725001
Si 4.667056 8.615102 9.266086
Si 5.103631 6.592637 10.132437
Si 10.551819 3.724556 0.186929
Si 0.244455 6.312211 6.103307
Si 3.049220 0.902208 5.876526
Si 3.378229 3.377394 4.274165
Si 8.891225 9.143173 4.655966
Si 10.144704 6.594758 0.023419
Si 1.479199 9.937832 7.074327
Si 1.511850 6.768608 9.172766
Si 7.010266 9.689982 3.033315
Si 10.313559 0.623882 5.517138
Si 3.120052 8.061887 7.941806
Si 3.316476 5.356285 10.787375
Si 7.198969 8.947377 9.146247
Si 0.635413 8.397170 5.483557
Si 8.589607 8.381449 0.991609
Si 8.959522 6.953004 8.370908
Si 5.869020 1.082449 0.458788
Si 1.332136 0.712702 3.289594
Si 5.525604 0.186006 4.452134
Si 5.060271 0.153382 8.148411
Si 10.857736 9.100300 8.681531
Si 10.254822 10.168287 2.950599
Si 8.689243 10.512305 8.714899
Si 5.579290 2.797571 8.947101
Si 3.420283 9.113477 1.057331
Si 4.187839 5.530550 2.704514
Si 2.115376 2.242312 7.594584
Si 9.514370 5.333865 2.181294
Si 7.130603 10.795204 6.330603
Si 9.242745 5.459317 6.526751
Si 1.639621 5.462343 3.957298
Si 0.951211 2.971243 4.234900
Si 8.708421 6.772983 4.179673
Si 7.170959 4.713868 3.417915
Si 0.032307 7.695175 2.758565
Si 6.532857 6.840665 1.296756
Si 4.463727 3.226031 0.337747
Si 1.146686 8.633041 0.544348
64
Step 1230
Si 9.585090 10.178159 0.448353
Si 7.936728 3.561324 6.745080
Si 3.870886 2.291146 2.437244
Si 1.658050 2.674197 1.350543
Si 10.820527 2.608337 6.968901
Si 5.510544 5.221402 6.671175
Si 8.352022 1.745507 0.474737
Si 3.709024 3.740325 7.209657
Si 2.780383 5.925955 6.523453
Si 3.118959 9.303959 4.816114
Si 6.884202 4.834591 9.355269
Si 8.635137 1.864810 4.579395
Si 5.966620 9.657010 0.643687
Si 1.698993 4.326831 9.464906
Si 4.136720 10.671910 2.719231
Si 6.963063 7.570477 6.663516
Si 2.949318 0.521912 8.811811
Si 7.089393 2.115935 3.052695
Si 7.595040 1.579476 8.751824
Si 7.855588 3.891653 0.627834
Si 2.668852 7.660962 3.042335
Si 5.269054 9.184677 6.588113
Si 5.820228 6.770646 3.770324
Si 9.849906 2.609862 2.547304
Si 4.679919 8.590403 9.302344
Si 5.191582 6.450843 10.043778
Si 10.655401 3.784908 0.273321
Si 0.198503 6.380204 6.127042
Si 2.966097 0.880437 5.742096
Si 3.482581 3.286640 4.196214
Si 8.917458 9.137060 4.656893
Si 10.142023 6.658144 10.839002
Si 1.514492 10.075332 7.070833
Si 1.453075 6.743684 9.272878
Si 7.039442 9.735866 3.039609
Si 10.353377 0.587498 5.385651
Si 3.020038 8.065570 7.781808
Si 3.253194 5.359370 10.808190
Si 7.045935 8.923950 9.052814
Si 0.623529 8.450212 5.466325
Si 8.643978 8.325930 1.028323
Si 8.963122 7.000638 8.387237
Si 5.855160 0.973037 0.427880
Si 1.362649 0.534951 3.291030
Si 5.626775 0.287777 4.415562
Si 5.142267 0.055226 8.202751
Si 0.000674 8.980295 8.650083
Si 10.238744 10.204932 2.971020
Si 8.729989 10.548463 8.751627
Si 5.665518 2.817938 9.123937
Si 3.185092 9.234689 1.166032
Si 4.147871 5.627344 2.704077
Si 2.109487 2.242792 7.689894
Si 9.594541 5.328532 2.187448
Si 7.219686 10.700341 6.399077
Si 9.181758 5.432010 6.408466
Si 1.707716 5.482681 3.972606
Si 1.091378 2.987736 4.312503
Si 8.725635 6.615715 4.264792
Si 7.106953 4.855097 3.374057
Si 0.173254 7.617743 2.875886
Si 6.593215 6.800105 1.231594
Si 4.393178 3.474469 0.297174
Si 0.864401 8.696373 0.404627
64
Step 1240
Si 9.661317 10.154934 0.447647
Si 8.002872 3.417169 6.901683
Si 3.966920 2.195619 2.449853
Si 1.638319 2.645333 1.375441
Si 10.730221 2.527493 6.891093
Si 5.545566 5.190748 6.565954
Si 8.155269 1.679253 0.412746
Si 3.687518 3.720484 7.133743
Si 2.720988 5.934572 6.444168
Si 3.194667 9.217643 4.790570
Si 7.107875 4.941460 9.314526
Si 8.654299 1.817787 4.604684
Si 5.892778 9.538811 0.594507
Si 1.764502 4.318289 9.482649
Si 4.032821 10.654631 2.641071
Si 6.974655 7.658489 6.662824
Si 2.885879 0.518035 8.935068
Si 7.027015 2.159927 2.998813
Si 7.555716 1.732519 8.749030
Si 7.801808 4.041712 0.757578
Si 2.566895 7.732588 3.028160
Si 5.238004 9.246860 6.616471
Si 5.746249 6.665807 3.832353
Si 9.838359 2.631643 2.410340
Si 4.601698 8.504916 9.463719
Si 5.327891 6.256489 9.995319
Si 10.799956 3.879183 0.280892
Si 0.283639 6.417026 6.149099
Si 2.921525 0.883715 5.491901
Si 3.631182 3.248438 4.305531
Si 8.891788 9.096535 4.721054
Si 10.125674 6.646941 10.764377
Si 1.463576 10.169865 7.123239
Si 1.363720 6.762575 9.351599
Si 7.086154 9.775991 3.033533
Si 10.448004 0.581632 5.347291
Si 2.916237 8.013422 7.599019
Si 3.285831 5.387651 0.036223
Si 7.034190 8.867833 9.022495
Si 0.596339 8.492195 5.395026
Si 8.606874 8.295616 1.105101
Si 8.941418 7.036189 8.449817
Si 5.883023 0.943951 0.431480
Si 1.454078 0.366566 3.296696
Si 5.735123 0.411054 4.400535
Si 5.203237 0.112139 8.293901
Si 10.821886 8.870906 8.616837
Si 10.232569 10.220426 2.902705
Si 8.859701 10.498915 8.781410
Si 5.674489 2.897390 9.247913
Si 2.917310 9.301667 1.248904
Si 4.126676 5.684399 2.642625
Si 2.096578 2.345746 7.812668
Si 9.660794 5.386230 2.220843
Si 7.442370 10.667996 6.354995
Si 9.079972 5.436855 6.296680
Si 1.735510 5.480060 4.042484
Si 1.163447 2.961082 4.415386
Si 8.704527 6.500625 4.394657
Si 7.040581 4.924024 3.268472
Si 0.295117 7.563357 2.936556
Si 6.637411 6.720109 1.139797
Si 4.329789 3.678760 0.288983
Si 0.635621 8.815721 0.287248
64
Step 1250
Si 9.679500 10.258655 0.457011
Si 8.088338 3.279246 7.071830
Si 4.081565 2.105045 2.392438
Si 1.626341 2.592319 1.433343
Si 10.641081 2.458820 6.798567
Si 5.631207 5.192368 6.470556
Si 8.023244 1.537234 0.338868
Si 3.687373 3.670006 7.044950
Si 2.648817 5.992539 6.383909
Si 3.294004 9.128261 4.806732
Si 7.330743 5.032663 9.172634
Si 8.664242 1.791388 4.677676
Si 5.862907 9.371258 0.622890
Si 1.797981 4.276495 9.497377
Si 3.985029 10.698200 2.560259
Si 6.969911 7.676634 6.572790
Si 2.870152 0.480705 9.069092
Si 6.872056 2.207962 2.914302
Si 7.540758 1.832430 8.700705
Si 7.729751 4.210223 0.891376
Si 2.586355 7.796271 2.947880
Si 5.129308 9.295838 6.539410
Si 5.681260 6.596850 4.009481
Si 9.879645 2.623530 2.321724
Si 4.458995 8.371905 9.652588
Si 5.463608 6.133108 9.969062
Si 0.100368 3.968330 0.247784
Si 0.390384 6.404121 6.267447
Si 2.928864 0.904304 5.243319
Si 3.806896 3.273283 4.469279
Si 8.833045 8.988898 4.824778
Si 10.062569 6.523696 10.734420
Si 1.395649 10.253829 7.197295
Si 1.373375 6.755862 9.369730
Si 7.101532 9.833000 2.958777
Si 10.574757 0.568431 5.376903
Si 2.846605 7.945483 7.419349
Si 3.290490 5.531553 0.129346
Si 7.144573 8.834737 9.028601
Si 0.558045 8.566431 5.319366
Si 8.468573 8.256665 1.237167
Si 8.884325 7.025143 8.520006
Si 5.889611 0.950567 0.442561
Si 1.553422 0.235236 3.285708
Si 5.808551 0.504811 4.448557
Si 5.225076 0.237723 8.449461
Si 10.770418 8.791910 8.517335
Si 10.235358 10.247405 2.807245
Si 8.962679 10.435146 8.812944
Si 5.575460 3.051323 9.294835
Si 2.628482 9.317828 1.276306
Si 4.058821 5.717450 2.568707
Si 2.061841 2.528751 7.905041
Si 9.719509 5.531299 2.274852
Si 7.725043 10.685216 6.293933
Si 8.965206 5.434091 6.245777
Si 1.786947 5.385186 4.144585
Si 1.192431 2.932850 4.469850
Si 8.653272 6.439892 4.467939
Si 7.002250 4.895105 3.138560
Si 0.276650 7.575772 2.897101
Si 6.660620 6.637223 1.049316
Si 4.334373 3.687523 0.349500
Si 0.513776 8.979969 0.196849
64
Step 1260
Si 9.648132 10.446690 0.464913
Si 8.173643 3.196541 7.223800
Si 4.179201 2.087829 2.282891
Si 1.685995 2.510242 1.557181
Si 10.570816 2.418146 6.743795
Si 5.770504 5.217981 6.363576
Si 7.965355 1.406029 0.290226
Si 3.706477 3.639072 6.978811
Si 2.673778 6.021738 6.354648
Si 3.377575 9.020034 4.846779
Si 7.567464 5.093858 8.980329
Si 8.635585 1.792294 4.731181
Si 5.834872 9.239547 0.701354
Si 1.835108 4.200348 9.505969
Si 4.025028 10.727345 2.451247
Si 6.927096 7.649986 6.465276
Si 2.872434 0.492416 9.152598
Si 6.733863 2.240516 2.801414
Si 7.521298 1.884675 8.621885
Si 7.713569 4.299499 0.976703
Si 2.689472 7.789731 2.864315
Si 5.032740 9.369933 6.468345
Si 5.593006 6.539429 4.244652
Si 9.839060 2.642404 2.254743
Si 4.287146 8.253843 9.775387
Si 5.566331 6.082938 9.928330
Si 0.251512 4.068978 0.193320
Si 0.397340 6.389780 6.455138
Si 2.959104 0.913750 5.074271
Si 3.974711 3.356894 4.625243
Si 8.761733 8.870865 4.914629
Si 9.997122 6.384216 10.753664
Si 1.344787 10.328035 7.260976
Si 1.408571 6.766814 9.334811
Si 7.124599 9.880945 2.893444
Si 10.725943 0.537616 5.435663
Si 2.847540 7.919929 7.308880
Si 3.267530 5.739567 0.218211
Si 7.225985 8.875362 9.031757
Si 0.499613 8.645899 5.258568
Si 8.335851 8.177584 1.400250
Si 8.799079 6.938634 8.573253
Si 5.838185 1.004034 0.374250
Si 1.593732 0.139683 3.247352
Si 5.869636 0.545210 4.573340
Si 5.256482 0.316957 8.661731
Si 10.740987 8.761185 8.393664
Si 10.204682 10.251453 2.711376
Si 9.011714 10.394044 8.812414
Si 5.439639 3.186437 9.327547
Si 2.350036 9.326647 1.204823
Si 3.979342 5.732683 2.498550
Si 2.035016 2.677840 8.014009
Si 9.807928 5.695576 2.342137
Si 7.986374 10.729060 6.281227
Si 8.853365 5.413649 6.258093
Si 1.862212 5.245483 4.185278
Si 1.174079 2.910309 4.451090
Si 8.566896 6.398233 4.465096
Si 6.955752 4.809670 3.051173
Si 0.198822 7.602988 2.802286
Si 6.657124 6.583118 1.005520
Si 4.370076 3.573133 0.453470
Si 0.485369 9.090672 0.121135
64
Step 1270
Si 9.588448 10.666607 0.465124
Si 8.315760 3.249636 7.230222
Si 4.235223 2.147548 2.240373
Si 1.735991 2.410348 1.761435
Si 10.575827 2.470661 6.766678
Si 5.931121 5.180023 6.300408
Si 7.982674 1.357565 0.294007
Si 3.774837 3.672124 6.951572
Si 2.779460 5.936786 6.312751
Si 3.419366 8.909141 4.817317
Si 7.710794 5.077191 8.827869
Si 8.562503 1.819699 4.681014
Si 5.795115 9.154502 0.755940
Si 1.883634 4.184525 9.565924
Si 4.156019 10.678901 2.358582
Si 6.828511 7.680797 6.441335
Si 2.888508 0.525127 9.171442
Si 6.671607 2.261115 2.707038
Si 7.450174 1.795757 8.638270
Si 7.831308 4.289995 0.960005
Si 2.793784 7.697319 2.812162
Si 5.024404 9.519444 6.443846
Si 5.496624 6.469566 4.467423
Si 9.745864 2.704893 2.214354
Si 4.069074 8.195201 9.843288
Si 5.665311 6.015266 9.830332
Si 0.317649 4.143278 0.234006
Si 0.276823 6.394864 6.670238
Si 3.022694 0.891472 4.948198
Si 4.168220 3.450696 4.737530
Si 8.695186 8.794774 4.942401
Si 9.926168 6.267578 10.766492
Si 1.371546 10.375412 7.326506
Si 1.443384 6.836047 9.272881
Si 7.139400 9.961287 2.869980
Si 0.024648 0.469685 5.484799
Si 2.886012 7.987735 7.308656
Si 3.272735 5.958608 0.324872
Si 7.191280 8.948300 9.069151
Si 0.452365 8.681465 5.154088
Si 8.265478 8.047550 1.562013
Si 8.744752 6.916961 8.604169
Si 5.742815 1.005970 0.204685
Si 1.547538 0.107348 3.168459
Si 5.940926 0.553736 4.722250
Si 5.291769 0.304826 8.878502
Si 10.741619 8.710171 8.288876
Si 10.107506 10.234898 2.730327
Si 9.010585 10.353538 8.766024
Si 5.298406 3.315667 9.332899
Si 2.175499 9.348571 1.106357
Si 3.885513 5.749424 2.448680
Si 1.989105 2.715904 8.032850
Si 9.892681 5.805066 2.427014
Si 8.196613 10.761362 6.300762
Si 8.762981 5.376922 6.219255
Si 1.930923 5.147811 4.161110
Si 1.135294 2.887294 4.340927
Si 8.501872 6.304026 4.397200
Si 6.889037 4.701480 3.078800
Si 0.083881 7.680297 2.762103
Si 6.663396 6.577542 0.977757
Si 4.376826 3.509982 0.569054
Si 0.446950 9.098713 10.811404
64
Step 1280
Si 9.512007 10.854083 0.443665
Si 8.497504 3.229040 7.164713
Si 4.251471 2.204912 2.350568
Si 1.710500 2.335931 1.977699
Si 10.641476 2.557781 6.811582
Si 6.097010 5.049176 6.338372
Si 8.060460 1.392258 0.333273
Si 3.843406 3.723379 7.036473
Si 2.864238 5.836628 6.244455
Si 3.411687 8.815522 4.715062
Si 7.678179 4.970208 8.824602
Si 8.487739 1.872644 4.587241
Si 5.709042 9.098419 0.761774
Si 1.974320 4.239288 9.668791
Si 4.345532 10.586767 2.311964
Si 6.721216 7.800720 6.491499
Si 2.918032 0.565383 9.113404
Si 6.706246 2.248239 2.652977
Si 7.388130 1.655216 8.648092
Si 8.049225 4.256061 0.918000
Si 2.825013 7.647275 2.802581
Si 5.083293 9.706997 6.447725
Si 5.390825 6.416999 4.606173
Si 9.649763 2.769452 2.180600
Si 3.856336 8.212729 9.921306
Si 5.765752 5.973632 9.703807
Si 0.332542 4.197802 0.386711
Si 0.126496 6.415356 6.877040
Si 3.152568 0.846370 4.833004
Si 4.348905 3.524475 4.723152
Si 8.613586 8.775905 4.927472
Si 9.856031 6.201014 10.771221
Si 1.459210 10.394637 7.411096
Si 1.520160 6.886842 9.203297
Si 7.168262 10.079096 2.869215
Si 0.190027 0.408330 5.536135
Si 2.912755 8.101050 7.364574
Si 3.272782 6.144846 0.384051
Si 7.046648 9.001259 9.121526
Si 0.429615 8.675903 5.047889
Si 8.309497 7.948580 1.718898
Si 8.768348 7.058050 8.627804
Si 5.624474 0.931411 0.042072
Si 1.442712 0.074706 3.083721
Si 6.005211 0.514777 4.850320
Si 5.287414 0.233634 9.044859
Si 10.726883 8.707487 8.159442
Si 9.944086 10.217731 2.801228
Si 8.997501 10.321735 8.708091
Si 5.184363 3.441368 9.271207
Si 2.089333 9.363705 1.038718
Si 3.866914 5.718831 2.436146
Si 1.930296 2.639170 7.964032
Si 9.963497 5.816907 2.497091
Si 8.392538 10.752916 6.330299
Si 8.763562 5.355381 6.078846
Si 2.021665 5.088683 4.144257
Si 1.097371 2.853776 4.195495
Si 8.405046 6.208144 4.243760
Si 6.763452 4.619868 3.173530
Si 0.002684 7.809489 2.722451
Si 6.578683 6.518205 0.958276
Si 4.321216 3.556330 0.625927
Si 0.367282 9.023492 10.630732
64
Step 1290
Si 9.593706 10.849412 0.401844
Si 8.652830 3.130208 7.091399
Si 4.278897 2.238056 2.556654
Si 1.651285 2.306626 2.158290
Si 10.815036 2.608457 6.809369
Si 6.306119 4.889871 6.484804
Si 7.990023 1.586234 0.338421
Si 3.882920 3.789845 7.189093
Si 2.946481 5.735516 6.137035
Si 3.375203 8.783327 4.616306
Si 7.623523 4.878168 8.899258
Si 8.428504 1.940914 4.522381
Si 5.621671 9.031341 0.699234
Si 2.115741 4.297428 9.784313
Si 4.490822 10.461822 2.355344
Si 6.633579 7.961341 6.576009
Si 2.929312 0.619782 8.973702
Si 6.749791 2.189531 2.618935
Si 7.402857 1.566665 8.605319
Si 8.272211 4.282744 0.843304
Si 2.808708 7.692538 2.821257
Si 5.150037 9.884294 6.468646
Si 5.259514 6.403240 4.734283
Si 9.597739 2.778784 2.189745
Si 3.755732 8.296628 10.036952
Si 5.827181 5.994390 9.598120
Si 0.366079 4.198227 0.600846
Si 10.855206 6.432221 7.027905
Si 3.336325 0.780708 4.705630
Si 4.511403 3.526280 4.607173
Si 8.515576 8.752074 4.922805
Si 9.816937 6.204994 10.707682
Si 1.582551 10.389436 7.502340
Si 1.566049 6.893825 9.186095
Si 7.205775 10.206213 2.902336
Si 0.352169 0.396977 5.593804
Si 2.958441 8.240379 7.389580
Si 3.282050 6.276380 0.346667
Si 6.831335 8.985365 9.183585
Si 0.392225 8.662822 5.000645
Si 8.330759 7.911577 1.861147
Si 8.742517 7.203851 8.614861
Si 5.501193 0.909484 0.029955
Si 1.319403 0.022194 2.966557
Si 6.057558 0.439987 4.951272
Si 5.198321 0.057122 9.068756
Si 10.685739 8.798702 7.976205
Si 9.783347 10.245263 2.820924
Si 8.938915 10.328311 8.679670
Si 5.079038 3.561724 9.193095
Si 1.998456 9.360989 0.970899
Si 3.939656 5.600931 2.437826
Si 1.870301 2.557330 7.886282
Si 10.026987 5.744142 2.567511
Si 8.596134 10.746313 6.320741
Si 8.807467 5.347662 5.987045
Si 2.105695 5.001641 4.153390
Si 1.041977 2.790721 4.117778
Si 8.254067 6.175604 3.998006
Si 6.596810 4.573562 3.295978
Si 0.013421 7.965470 2.667479
Si 6.461446 6.418848 0.938304
Si 4.211124 3.640149 0.614069
Si 0.292141 8.901360 10.555123
64
Step 1300
Si 9.679764 10.782896 0.353394
Si 8.766907 2.996950 6.993345
Si 4.284834 2.254419 2.752256
Si 1.616897 2.297292 2.231066
Si 0.146760 2.673685 6.736183
Si 6.508875 4.752059 6.642400
Si 7.857081 1.752961 0.287719
Si 3.898152 3.841698 7.329701
Si 3.032028 5.695805 6.084895
Si 3.330255 8.802087 4.583692
Si 7.616440 4.802939 9.004257
Si 8.394205 1.938394 4.502551
Si 5.580553 8.944099 0.645402
Si 2.245001 4.324858 9.911076
Si 4.559755 10.286142 2.443136
Si 6.551637 8.096697 6.681502
Si 2.947182 0.738070 8.826195
Si 6.782375 2.116407 2.559202
Si 7.410183 1.537117 8.592278
Si 8.376240 4.387774 0.708837
Si 2.766973 7.767193 2.800960
Si 5.173458 10.018817 6.502603
Si 5.091909 6.462200 4.916108
Si 9.633441 2.729141 2.302649
Si 3.751473 8.438598 10.162138
Si 5.847873 6.095230 9.540343
Si 0.475276 4.154197 0.806514
Si 10.780726 6.441987 7.069065
Si 3.506568 0.655685 4.592509
Si 4.664446 3.478914 4.529056
Si 8.406349 8.729562 4.920132
Si 9.795709 6.298019 10.609658
Si 1.688785 10.269851 7.538605
Si 1.551096 6.872776 9.126920
Si 7.239754 10.338703 2.960927
Si 0.477011 0.360663 5.625151
Si 2.983067 8.365661 7.364126
Si 3.361963 6.387091 0.279751
Si 6.632126 8.879410 9.236082
Si 0.357568 8.640968 5.058897
Si 8.279562 7.914939 1.955940
Si 8.623733 7.325313 8.591542
Si 5.403041 1.016560 0.153163
Si 1.200927 10.794617 2.847765
Si 6.144863 0.403875 5.013043
Si 5.053046 10.685698 8.909153
Si 10.671415 8.955922 7.775375
Si 9.652007 10.397031 2.812608
Si 8.868451 10.340231 8.675650
Si 4.967163 3.617353 9.144686
Si 1.926556 9.360096 0.907510
Si 4.075966 5.462772 2.471849
Si 1.909358 2.548207 7.873361
Si 10.128128 5.643956 2.674161
Si 8.812012 10.780118 6.258909
Si 8.875106 5.319220 5.951033
Si 2.127373 4.872747 4.123508
Si 0.977943 2.799089 4.132347
Si 8.106820 6.165679 3.762952
Si 6.446837 4.560515 3.358344
Si 0.086211 8.090924 2.584507
Si 6.337418 6.282040 0.918111
Si 4.087056 3.651142 0.604207
Si 0.190325 8.774938 10.548979
64
Step 1310
Si 9.743286 10.708596 0.281714
Si 8.866099 2.831640 6.890812
Si 4.245742 2.192190 2.872387
Si 1.657757 2.259847 2.206307
Si 0.298805 2.747528 6.582080
Si 6.643808 4.646930 6.781351
Si 7.763043 1.889949 0.197945
Si 3.904487 3.907219 7.362880
Si 3.140053 5.707594 6.047473
Si 3.291221 8.799959 4.636132
Si 7.654906 4.658249 9.062750
Si 8.396312 1.926608 4.507751
Si 5.616451 8.858723 0.658010
Si 2.288626 4.350157 10.043664
Si 4.607140 10.089687 2.497047
Si 6.474889 8.212628 6.736931
Si 2.946237 0.892611 8.705935
Si 6.814900 2.045812 2.483693
Si 7.344887 1.528644 8.604165
Si 8.424098 4.524102 0.554724
Si 2.743130 7.797153 2.720720
Si 5.175228 10.093242 6.524079
Si 4.930877 6.567920 5.172894
Si 9.624576 2.636310 2.459078
Si 3.717640 8.603060 10.262708
Si 5.823973 6.241533 9.498838
Si 0.608988 4.138488 0.971631
Si 10.716083 6.435509 7.056097
Si 3.582610 0.504548 4.484173
Si 4.795500 3.462513 4.612766
Si 8.301075 8.679303 4.916139
Si 9.831290 6.440414 10.551046
Si 1.793976 10.108914 7.557930
Si 1.474630 6.853530 9.020666
Si 7.271646 10.400544 3.011964
Si 0.598025 0.318558 5.606021
Si 3.014744 8.412098 7.299723
Si 3.434647 6.502587 0.222078
Si 6.479865 8.742973 9.281851
Si 0.338576 8.599184 5.145765
Si 8.170609 7.928534 2.021232
Si 8.470936 7.413176 8.551351
Si 5.289795 1.160497 0.282155
Si 1.090896 10.774668 2.747087
Si 6.244876 0.397280 5.077986
Si 4.932448 10.484202 8.705929
Si 10.643191 9.103233 7.632652
Si 9.522140 10.621945 2.762965
Si 8.816221 10.317096 8.740671
Si 4.961158 3.610831 9.139710
Si 1.891319 9.371950 0.809572
Si 4.194401 5.370022 2.522643
Si 2.037632 2.662562 7.949532
Si 10.277884 5.549392 2.769466
Si 9.004584 0.001581 6.176600
Si 8.991805 5.323992 5.915374
Si 2.098671 4.737045 4.057928
Si 0.919181 2.860210 4.272642
Si 7.975027 6.167134 3.593070
Si 6.394995 4.587801 3.383636
Si 0.152905 8.116151 2.530596
Si 6.227193 6.173486 0.951639
Si 3.978371 3.572329 0.624643
Si 0.055950 8.685828 10.550982
64
Step 1320
Si 9.782175 10.644656 0.238195
Si 8.953919 2.677221 6.795008
Si 4.174698 2.057152 2.953648
Si 1.709501 2.181275 2.173258
Si 0.420569 2.794500 6.417977
Si 6.719056 4.576822 6.881647
Si 7.736735 1.999769 0.099344
Si 3.888605 3.989650 7.269782
Si 3.187641 5.679203 6.014952
Si 3.209811 8.769360 4.730790
Si 7.738428 4.465130 9.086508
Si 8.410176 1.955068 4.550584
Si 5.762885 8.823909 0.782815
Si 2.237650 4.386590 10.173863
Si 4.670053 9.904571 2.458721
Si 6.432824 8.248203 6.695874
Si 2.959059 0.973418 8.611929
Si 6.814643 1.980486 2.393886
Si 7.227032 1.566013 8.627660
Si 8.499549 4.667323 0.452782
Si 2.727928 7.796813 2.638652
Si 5.161898 10.158733 6.526843
Si 4.830053 6.688393 5.402713
Si 9.627052 2.565664 2.585276
Si 3.582873 8.792766 10.305885
Si 5.795992 6.337290 9.424026
Si 0.720728 4.172243 1.074717
Si 10.649000 6.450106 7.034111
Si 3.548572 0.357021 4.361966
Si 4.915491 3.504194 4.844825
Si 8.215913 8.633608 4.928846
Si 9.892119 6.582599 10.562167
Si 1.845242 10.095977 7.615749
Si 1.360591 6.851500 8.911505
Si 7.264861 10.397702 3.028554
Si 0.773118 0.329385 5.480870
Si 3.135386 8.288987 7.220990
Si 3.450597 6.544691 0.164134
Si 6.381863 8.642279 9.363056
Si 0.335992 8.527907 5.128763
Si 8.072012 7.963629 2.051516
Si 8.364328 7.436905 8.499877
Si 5.131935 1.257512 0.397509
Si 0.989885 0.011889 2.719080
Si 6.371700 0.437611 5.112816
Si 4.854963 10.370391 8.579013
Si 10.558541 9.153062 7.598962
Si 9.452098 10.860398 2.658646
Si 8.735611 10.297818 8.837659
Si 5.080494 3.520962 9.212842
Si 1.928509 9.445162 0.703735
Si 4.228651 5.324427 2.577528
Si 2.151720 2.924040 8.063298
Si 10.457552 5.466988 2.830116
Si 9.144524 0.098490 6.069554
Si 9.096584 5.316354 5.853550
Si 2.104310 4.643365 4.000442
Si 0.852836 2.908431 4.402460
Si 7.878793 6.153840 3.467446
Si 6.425713 4.624922 3.421867
Si 0.122324 8.016971 2.554223
Si 6.165308 6.109816 1.004764
Si 3.879228 3.428280 0.676628
Si 10.786120 8.616561 10.553585
64
Step 1330
Si 9.739977 10.620545 0.202862
Si 8.989789 2.589721 6.764320
Si 4.098479 1.923117 3.097301
Si 1.733698 2.116536 2.074018
Si 0.507405 2.860279 6.456370
Si 6.818012 4.511401 6.927850
Si 7.787520 2.111949 0.010105
Si 3.866509 4.053524 7.168740
Si 3.115796 5.600367 5.985495
Si 3.101828 8.738110 4.812484
Si 7.832325 4.267405 9.103563
Si 8.424951 2.078603 4.612953
Si 5.963342 8.782598 0.922083
Si 2.174366 4.430633 10.281315
Si 4.747905 9.764125 2.382530
Si 6.436952 8.180519 6.568050
Si 3.020715 1.011834 8.525776
Si 6.770050 1.956916 2.301190
Si 7.098603 1.612801 8.638210
Si 8.581880 4.798903 0.389804
Si 2.701412 7.797194 2.541613
Si 5.137542 10.282052 6.416078
Si 4.891497 6.837859 5.574492
Si 9.654966 2.583788 2.660456
Si 3.433619 8.953236 10.275896
Si 5.804783 6.353627 9.297748
Si 0.786476 4.193786 1.184726
Si 10.623765 6.525801 7.053622
Si 3.473493 0.184173 4.256946
Si 5.033196 3.575549 5.088346
Si 8.145550 8.615943 4.952564
Si 9.886318 6.709810 10.593615
Si 1.789974 10.145327 7.655368
Si 1.258533 6.840010 8.810110
Si 7.218264 10.321704 3.029982
Si 0.997139 0.307977 5.337198
Si 3.219344 8.124500 7.197595
Si 3.396635 6.579261 0.060016
Si 6.318697 8.580516 9.477901
Si 0.304186 8.452654 5.076577
Si 8.026395 8.043959 2.050498
Si 8.362206 7.399864 8.474082
Si 4.965918 1.291758 0.485419
Si 0.928489 0.068729 2.720972
Si 6.514805 0.479646 5.121481
Si 4.801357 10.376544 8.621875
Si 10.478292 9.135897 7.651523
Si 9.469222 0.201240 2.453943
Si 8.607039 10.282155 8.947759
Si 5.251689 3.403276 9.316120
Si 1.929050 9.555798 0.678632
Si 4.221790 5.270425 2.632151
Si 2.221609 3.208292 8.191044
Si 10.624750 5.361083 2.849090
Si 9.253673 0.097007 5.996530
Si 9.094575 5.225382 5.776747
Si 2.159304 4.616583 3.954216
Si 0.801065 2.985229 4.355385
Si 7.904620 6.173281 3.411872
Si 6.417022 4.574057 3.534942
Si 0.026587 7.921965 2.580139
Si 6.151116 6.045637 0.992084
Si 3.793200 3.302573 0.707739
Si 10.694750 8.588970 10.589868
64
Step 1340
Si 9.607651 10.667842 0.118145
Si 9.029074 2.572089 6.833101
Si 4.069036 1.788088 3.294696
Si 1.738710 2.096093 1.949014
Si 0.580804 2.955160 6.674033
Si 6.915435 4.467047 6.964297
Si 7.855954 2.210221 10.858562
Si 3.963914 4.034746 7.157565
Si 2.889988 5.610218 5.900617
Si 2.972187 8.691615 4.842318
Si 7.973376 4.173084 9.121494
Si 8.428323 2.290154 4.608285
Si 6.166662 8.675387 0.923027
Si 2.147786 4.470700 10.322581
Si 4.735202 9.696058 2.332959
Si 6.477337 8.172640 6.450384
Si 3.099279 1.109726 8.428508
Si 6.693826 1.992948 2.228363
Si 6.976866 1.565303 8.626306
Si 8.659572 4.937862 0.376113
Si 2.659327 7.796985 2.429191
Si 5.135633 10.346595 6.322816
Si 4.999366 6.951189 5.704359
Si 9.665562 2.656699 2.714982
Si 3.400263 9.021445 10.175623
Si 5.793912 6.275534 9.180812
Si 0.801458 4.180764 1.292673
Si 10.573702 6.610199 7.031954
Si 3.382613 10.830500 4.166790
Si 5.193402 3.596723 5.300248
Si 8.126885 8.601967 4.971474
Si 9.760196 6.723786 10.660810
Si 1.669939 10.197376 7.670889
Si 1.207940 6.816446 8.754068
Si 7.211216 10.290194 3.073874
Si 1.223734 0.209155 5.228962
Si 3.254566 8.025635 7.247600
Si 3.373279 6.669321 10.787750
Si 6.247312 8.571185 9.621205
Si 0.209075 8.419183 5.033157
Si 8.074487 8.067513 2.017240
Si 8.427411 7.324724 8.500171
Si 4.875041 1.241093 0.530833
Si 0.908933 0.007199 2.735716
Si 6.658897 0.471619 5.132706
Si 4.780701 10.479412 8.694478
Si 10.442396 9.109476 7.763492
Si 9.508911 0.376441 2.233149
Si 8.427593 10.262370 9.020237
Si 5.367034 3.295576 9.412111
Si 1.828084 9.673974 0.774668
Si 4.206598 5.224203 2.615322
Si 2.196490 3.441612 8.347142
Si 10.683306 5.325274 2.843824
Si 9.385515 10.836127 5.939377
Si 9.063067 5.105894 5.695579
Si 2.263510 4.695913 3.891726
Si 0.726846 3.011470 4.236112
Si 7.990515 6.151381 3.416588
Si 6.436223 4.514059 3.584795
Si 10.768251 7.844012 2.542660
Si 6.147240 5.966624 0.941738
Si 3.710463 3.247740 0.698727
Si 10.698141 8.666432 10.635987
64
Step 1350
Si 9.429409 10.759942 10.852532
Si 9.139734 2.547658 6.964671
Si 4.074241 1.777204 3.456572
Si 1.763524 2.072119 1.832847
Si 0.596917 3.050856 6.876326
Si 6.952616 4.448975 7.035789
Si 7.914337 2.260286 0.039674
Si 4.063460 3.991756 7.224240
Si 2.652435 5.682478 5.816668
Si 2.821304 8.590966 4.845479
Si 8.157459 4.224374 9.160637
Si 8.342698 2.551088 4.592242
Si 6.351563 8.498294 0.882238
Si 2.149665 4.522482 10.359911
Si 4.638734 9.673383 2.244743
Si 6.608754 8.249326 6.400713
Si 3.118368 1.239009 8.322175
Si 6.660915 2.028700 2.194769
Si 6.832169 1.438106 8.603176
Si 8.721118 5.033141 0.407946
Si 2.652223 7.753129 2.305762
Si 5.140830 10.388793 6.246027
Si 5.045800 6.965925 5.757753
Si 9.632816 2.697244 2.738404
Si 3.420758 9.081981 10.058839
Si 5.785210 6.102608 9.133704
Si 0.794957 4.163187 1.335638
Si 10.461583 6.660744 6.955092
Si 3.344368 10.596096 4.111462
Si 5.380699 3.553472 5.458968
Si 8.126991 8.582730 4.947872
Si 9.635314 6.738317 10.688962
Si 1.578569 10.266840 7.676683
Si 1.169315 6.789879 8.754238
Si 7.242739 10.309246 3.154802
Si 1.361334 0.143087 5.192400
Si 3.228998 8.006701 7.406964
Si 3.422580 6.764752 10.673216
Si 6.214127 8.592964 9.687176
Si 0.096988 8.403942 5.021408
Si 8.217211 8.037873 1.994820
Si 8.472374 7.199298 8.563106
Si 4.825882 1.147276 0.539835
Si 0.858543 10.829209 2.666690
Si 6.808952 0.468803 5.155555
Si 4.796801 10.617420 8.767029
Si 10.408182 9.131765 7.911357
Si 9.526781 0.547599 2.042469
Si 8.222105 10.208042 9.025189
Si 5.464837 3.219647 9.502383
Si 1.703199 9.771907 0.885414
Si 4.182095 5.186489 2.497726
Si 2.130173 3.567991 8.468250
Si 10.606890 5.453491 2.848200
Si 9.537483 10.647347 5.892944
Si 9.071307 4.992382 5.556750
Si 2.424570 4.801493 3.791655
Si 0.680475 2.915890 4.226976
Si 8.145064 6.131389 3.460378
Si 6.456309 4.415391 3.584394
Si 10.648595 7.762157 2.504326
Si 6.104648 5.896367 0.878185
Si 3.645525 3.230317 0.702068
Si 10.782394 8.788678 10.699565
64
Step 1360
Si 9.276766 10.831924 10.723659
Si 9.228512 2.496931 7.155141
Si 4.167216 1.834609 3.535871
Si 1.817845 2.038161 1.755842
Si 0.552523 3.140154 6.971987
Si 7.012653 4.443137 7.113403
Si 7.973562 2.280287 0.113360
Si 4.109699 3.984621 7.342824
Si 2.444558 5.773936 5.762323
Si 2.703140 8.360165 4.857477
Si 8.343463 4.309671 9.161170
Si 8.195651 2.775624 4.639351
Si 6.516224 8.297851 0.985007
Si 2.159794 4.665806 10.442085
Si 4.552263 9.672773 2.086233
Si 6.724355 8.333357 6.483300
Si 3.092174 1.316660 8.214611
Si 6.620762 2.020389 2.180271
Si 6.712843 1.262798 8.557150
Si 8.698150 5.016176 0.512819
Si 2.656027 7.688082 2.173247
Si 5.110567 10.388967 6.168378
Si 5.010714 6.943062 5.776006
Si 9.572410 2.746880 2.732126
Si 3.381313 9.175311 9.937222
Si 5.776684 5.863441 9.123120
Si 0.792723 4.149203 1.350140
Si 10.355850 6.705157 6.853319
Si 3.439852 10.354787 4.082211
Si 5.608465 3.498003 5.568243
Si 8.203081 8.590980 4.846844
Si 9.561702 6.904095 10.644098
Si 1.559572 10.360804 7.704893
Si 1.174681 6.805970 8.759129
Si 7.272602 10.321573 3.148988
Si 1.338908 0.168200 5.220158
Si 3.152102 8.051264 7.602613
Si 3.508140 6.824519 10.591998
Si 6.228745 8.643051 9.600254
Si 10.846792 8.351462 4.993991
Si 8.383753 8.004742 2.004067
Si 8.461569 7.065823 8.619479
Si 4.783045 1.019532 0.561723
Si 0.763484 10.851827 2.583876
Si 6.962190 0.585036 5.187656
Si 4.832994 10.752177 8.857257
Si 10.355456 9.224798 8.048145
Si 9.506981 0.687964 1.912339
Si 7.994387 10.101732 8.947871
Si 5.528591 3.197194 9.567923
Si 1.663540 9.801060 0.946080
Si 4.153365 5.168757 2.332305
Si 2.109210 3.602340 8.531851
Si 10.511922 5.572962 2.914599
Si 9.644164 10.479620 5.874697
Si 9.085516 4.897661 5.412319
Si 2.559630 4.876053 3.666177
Si 0.669905 2.821755 4.327367
Si 8.261946 6.054466 3.505434
Si 6.465960 4.316778 3.569953
Si 10.577355 7.685337 2.485616
Si 6.063182 5.858494 0.801929
Si 3.625058 3.201367 0.726516
Si 0.029731 8.952684 10.727947
64
Step 1370
Si 9.128137 0.013413 10.583205
Si 9.195908 2.414182 7.362184
Si 4.299638 1.891894 3.536786
Si 1.907513 2.025891 1.784876
Si 0.539343 3.245608 6.968896
Si 7.135235 4.424987 7.186746
Si 7.998175 2.293736 0.152516
Si 4.087154 4.027385 7.484821
Si 2.263847 5.882047 5.763554
Si 2.576609 8.041363 4.894064
Si 8.528233 4.360655 9.172582
Si 8.096764 2.905120 4.709055
Si 6.588745 8.101382 1.085353
Si 2.176599 4.840145 10.460049
Si 4.518491 9.677159 1.856165
Si 6.810114 8.408043 6.657858
Si 3.037984 1.348208 8.114939
Si 6.514122 1.997417 2.198856
Si 6.647577 1.089050 8.526993
Si 8.650978 4.983168 0.662932
Si 2.667707 7.590299 2.021724
Si 5.074473 10.354355 6.122197
Si 4.930518 6.948433 5.809497
Si 9.493451 2.793291 2.747464
Si 3.327776 9.284535 9.861585
Si 5.764065 5.644736 9.118933
Si 0.768204 4.166058 1.387749
Si 10.264045 6.723837 6.729548
Si 3.586110 10.156672 4.066581
Si 5.781260 3.409893 5.641638
Si 8.253757 8.594283 4.742496
Si 9.520176 7.115305 10.585056
Si 1.594848 10.476300 7.747796
Si 1.150532 6.858832 8.787390
Si 7.295197 10.379982 3.084556
Si 1.233888 0.182274 5.215995
Si 3.065337 8.106348 7.754053
Si 3.551858 6.881587 10.529992
Si 6.285038 8.684851 9.445529
Si 10.781914 8.280031 4.931803
Si 8.549963 8.028914 2.046980
Si 8.391996 6.950290 8.629165
Si 4.752179 0.874309 0.641336
Si 0.677080 0.088007 2.589276
Si 7.136239 0.741643 5.201924
Si 4.823853 0.053598 8.926165
Si 10.309655 9.314185 8.196342
Si 9.483997 0.773298 1.854838
Si 7.816133 10.019417 8.817511
Si 5.611918 3.174327 9.601622
Si 1.780621 9.747944 0.977357
Si 4.206598 5.164331 2.112940
Si 2.149038 3.604144 8.612003
Si 10.489920 5.569724 2.976339
Si 9.707333 10.412705 5.905991
Si 9.108186 4.835348 5.352912
Si 2.566653 4.883796 3.508563
Si 0.701544 2.745418 4.481613
Si 8.249022 5.915789 3.531550
Si 6.417484 4.248266 3.489484
Si 10.641126 7.735253 2.451764
Si 6.065792 5.845055 0.752559
Si 3.659128 3.158112 0.784031
Si 0.059237 9.097370 10.647707
64
Step 1380
Si 8.977695 0.038888 10.415653
Si 9.144267 2.294232 7.549784
Si 4.439081 1.927794 3.534185
Si 1.945431 2.019779 1.930173
Si 0.492915 3.357572 6.919755
Si 7.245900 4.427415 7.273802
Si 7.956962 2.371064 0.105824
Si 4.079044 4.116454 7.575081
Si 2.089520 5.949454 5.802840
Si 2.399438 7.780393 4.912403
Si 8.704572 4.371713 9.211314
Si 8.137251 2.828029 4.790149
Si 6.629229 7.925280 1.147664
Si 2.179414 5.033595 10.459583
Si 4.531022 9.679235 1.630957
Si 6.839694 8.482311 6.806479
Si 3.026015 1.418894 8.035069
Si 6.437088 1.955887 2.219404
Si 6.687998 1.007714 8.466396
Si 8.592628 4.945444 0.861473
Si 2.686523 7.467344 1.906547
Si 5.087464 10.312652 6.066547
Si 4.817591 6.973897 5.911690
Si 9.425553 2.849059 2.749245
Si 3.329338 9.385177 9.807799
Si 5.761362 5.499447 9.132543
Si 0.750792 4.186072 1.424054
Si 10.211190 6.753793 6.642494
Si 3.738815 9.999135 4.080936
Si 5.816306 3.295002 5.756602
Si 8.228648 8.604970 4.678456
Si 9.510428 7.354934 10.580916
Si 1.620015 10.549680 7.780403
Si 1.056078 6.934446 8.797847
Si 7.311159 10.503526 3.012945
Si 1.125369 0.171162 5.147087
Si 2.988354 8.137742 7.825078
Si 3.574962 6.890041 10.478509
Si 6.221702 8.622662 9.361266
Si 10.820620 8.178904 4.883340
Si 8.616280 8.094073 2.032865
Si 8.322494 6.812671 8.540905
Si 4.720009 0.716833 0.670309
Si 0.670426 0.223960 2.654738
Si 7.288440 0.854143 5.221241
Si 4.648710 0.216809 9.022375
Si 10.292818 9.352518 8.320018
Si 9.436967 0.813572 1.893385
Si 7.859293 10.004012 8.653778
Si 5.735146 3.133867 9.652855
Si 1.875994 9.717321 1.015934
Si 4.299664 5.148001 1.886099
Si 2.156254 3.572921 8.682053
Si 10.597979 5.467401 2.994376
Si 9.719056 10.456228 5.978119
Si 9.205327 4.809232 5.488603
Si 2.505389 4.839394 3.383898
Si 0.746403 2.681444 4.569876
Si 8.120130 5.840246 3.489309
Si 6.267730 4.237203 3.301619
Si 10.841606 7.847773 2.374205
Si 6.094144 5.827185 0.711291
Si 3.739350 3.123966 0.863279
Si 0.068975 9.192438 10.510567
64
Step 1390
Si 8.856666 0.149190 10.354975
Si 9.103410 2.161406 7.730413
Si 4.547314 1.966980 3.574126
Si 2.010236 2.038871 2.154562
Si 0.430521 3.473766 6.834751
Si 7.317091 4.433702 7.327264
Si 7.866706 2.445945 0.032418
Si 4.106365 4.230317 7.581013
Si 1.930780 5.876046 5.890271
Si 2.227891 7.662165 4.857161
Si 8.907444 4.322615 9.284257
Si 8.324950 2.735942 4.843992
Si 6.641726 7.842018 1.175750
Si 2.124732 5.188660 10.459501
Si 4.574201 9.611917 1.489593
Si 6.771992 8.493375 6.857934
Si 3.043328 1.535543 7.942184
Si 6.418036 1.901263 2.186021
Si 6.779539 0.966452 8.349025
Si 8.518441 4.925824 1.053278
Si 2.728225 7.316279 1.897679
Si 5.153459 10.269345 6.052361
Si 4.726058 7.057551 6.084223
Si 9.315090 2.920341 2.771445
Si 3.313670 9.377929 9.747943
Si 5.749893 5.456329 9.184586
Si 0.747188 4.176844 1.432597
Si 10.140057 6.776685 6.607302
Si 3.883357 9.884857 4.102806
Si 5.736871 3.185948 5.896983
Si 8.171329 8.595175 4.616220
Si 9.496685 7.519274 10.602098
Si 1.566941 10.571032 7.750934
Si 0.968370 7.065626 8.838571
Si 7.327853 10.591194 2.924382
Si 1.050206 0.121729 5.075789
Si 2.910588 8.150741 7.802006
Si 3.593522 6.890048 10.362831
Si 6.073215 8.440012 9.355560
Si 0.041065 8.083654 4.827047
Si 8.622487 8.164641 1.998883
Si 8.274785 6.716335 8.430878
Si 4.708724 0.643214 0.693489
Si 0.676176 0.332908 2.672813
Si 7.340452 0.853653 5.297013
Si 4.542899 0.404853 9.086183
Si 10.338742 9.350033 8.341598
Si 9.406420 0.787265 1.957367
Si 7.941183 10.067628 8.433075
Si 5.878739 3.047437 9.719636
Si 1.882580 9.759307 1.097281
Si 4.395353 5.134359 1.702424
Si 2.098448 3.537614 8.752920
Si 10.729421 5.391484 3.064575
Si 9.698479 10.538812 6.057970
Si 9.365947 4.806847 5.661473
Si 2.403404 4.762699 3.355235
Si 0.787690 2.713868 4.591049
Si 7.952946 5.825873 3.454346
Si 6.134845 4.260073 3.118266
Si 0.207531 7.948423 2.243649
Si 6.215209 5.804815 0.637277
Si 3.835622 3.043577 0.885090
Si 0.088924 9.275686 10.419644
64
Step 1400
Si 8.771463 0.321596 10.402792
Si 9.050665 2.061716 7.847744
Si 4.592313 1.976370 3.684968
Si 2.168797 2.114669 2.388049
Si 0.388023 3.621617 6.762224
Si 7.385707 4.407749 7.328906
Si 7.776038 2.508224 10.833704
Si 4.107565 4.372771 7.541969
Si 1.847897 5.641333 6.064057
Si 2.146067 7.635804 4.722687
Si 9.126248 4.222211 9.380338
Si 8.518812 2.666449 4.971492
Si 6.611300 7.933017 1.177665
Si 2.023008 5.257307 10.457331
Si 4.656188 9.515216 1.413143
Si 6.667299 8.434470 6.804046
Si 3.036118 1.639067 7.863183
Si 6.427156 1.834306 2.115356
Si 6.778888 1.020435 8.121734
Si 8.472038 4.947795 1.212560
Si 2.792212 7.175210 1.937385
Si 5.301487 10.245974 6.071352
Si 4.576862 7.146270 6.298908
Si 9.217908 2.973625 2.792098
Si 3.308309 9.329945 9.667413
Si 5.750508 5.452680 9.262928
Si 0.740082 4.111718 1.376521
Si 10.071967 6.817086 6.621415
Si 3.988678 9.809454 4.113822
Si 5.647659 3.062046 5.977668
Si 8.123790 8.551478 4.555159
Si 9.425253 7.555002 10.639900
Si 1.502168 10.603324 7.697112
Si 0.903999 7.164289 8.868776
Si 7.338345 10.641701 2.824879
Si 0.968578 0.058876 4.986586
Si 2.826883 8.120936 7.702209
Si 3.646538 6.954779 10.234724
Si 5.869855 8.210963 9.422769
Si 0.087569 8.051422 4.739786
Si 8.617171 8.231494 1.989637
Si 8.225048 6.690036 8.350429
Si 4.720627 0.611964 0.734588
Si 0.682613 0.365632 2.681047
Si 7.345225 0.826964 5.410403
Si 4.510820 0.605400 9.117679
Si 10.445783 9.351814 8.230338
Si 9.414596 0.715449 2.007355
Si 8.061465 10.090111 8.217271
Si 5.982661 2.937591 9.751762
Si 1.851006 9.857033 1.185161
Si 4.480327 5.107266 1.562268
Si 2.032603 3.509387 8.821082
Si 10.784923 5.386442 3.225222
Si 9.641022 10.643052 6.120010
Si 9.511328 4.759366 5.798336
Si 2.341712 4.719704 3.410643
Si 0.808985 2.774067 4.556895
Si 7.818462 5.872013 3.493855
Si 6.044231 4.269880 3.062402
Si 0.409764 8.010978 2.157984
Si 6.347516 5.737770 0.468617
Si 3.880982 2.926827 0.842500
Si 0.122907 9.414856 10.365143
64
Step 1410
Si 8.723728 0.503401 10.455265
Si 9.044792 2.027240 7.931247
Si 4.565506 1.919078 3.817426
Si 2.365585 2.240503 2.577770
Si 0.394529 3.762662 6.731226
Si 7.464375 4.340784 7.308829
Si 7.728617 2.562886 10.840878
Si 4.080873 4.566322 7.469087
Si 1.850550 5.410230 6.296456
Si 2.257664 7.622476 4.597258
Si 9.345135 4.086960 9.483699
Si 8.703735 2.634022 5.161312
Si 6.592617 8.089279 1.200070
Si 1.912179 5.277883 10.484829
Si 4.755388 9.435510 1.349652
Si 6.579722 8.350078 6.720548
Si 2.993682 1.712268 7.784391
Si 6.422887 1.789101 2.026915
Si 6.690554 1.112548 7.840421
Si 8.491942 4.981979 1.318202
Si 2.892359 7.028189 1.988021
Si 5.452717 10.213787 6.061100
Si 4.310490 7.201637 6.491156
Si 9.212390 3.008764 2.801434
Si 3.303346 9.349588 9.620276
Si 5.720526 5.421234 9.240797
Si 0.679127 4.028292 1.251004
Si 10.052438 6.907111 6.651763
Si 4.082111 9.758505 4.156624
Si 5.594770 2.922587 6.022003
Si 8.094384 8.527321 4.533256
Si 9.340362 7.542335 10.698180
Si 1.465028 10.676781 7.588712
Si 0.851387 7.186282 8.895356
Si 7.352933 10.671626 2.742697
Si 0.852815 10.790529 4.946249
Si 2.744105 8.076685 7.564488
Si 3.668733 6.982873 10.130549
Si 5.702745 8.033727 9.422146
Si 0.033782 8.089318 4.660845
Si 8.569006 8.229335 1.963439
Si 8.172112 6.696915 8.294529
Si 4.734946 0.565619 0.796705
Si 0.711570 0.380048 2.683815
Si 7.350417 0.773437 5.466216
Si 4.471368 0.798794 9.164537
Si 10.570683 9.339173 8.084521
Si 9.422151 0.639194 2.071857
Si 8.166697 10.038410 8.056774
Si 6.023118 2.857299 9.711757
Si 1.813257 9.952774 1.245500
Si 4.498852 5.017814 1.456222
Si 1.959854 3.503155 8.874623
Si 10.705267 5.431581 3.453266
Si 9.595268 10.713615 6.095860
Si 9.592688 4.700741 5.835484
Si 2.366560 4.751133 3.492317
Si 0.767468 2.814206 4.513602
Si 7.755295 5.971188 3.598920
Si 5.960422 4.246592 3.086427
Si 0.541007 8.046627 2.081145
Si 6.551841 5.719728 0.377070
Si 3.910347 2.826527 0.819575
Si 0.141210 9.589708 10.359682
64
Step 1420
Si 8.770121 0.596083 10.498026
Si 9.119595 2.008713 8.086464
Si 4.496205 1.832748 3.987436
Si 2.570140 2.387306 2.738407
Si 0.421652 3.813229 6.821565
Si 7.518229 4.282519 7.291499
Si 7.739577 2.637631 0.067512
Si 4.062801 4.758748 7.366875
Si 1.927834 5.266326 6.479290
Si 2.421219 7.612532 4.514044
Si 9.548053 3.991911 9.594979
Si 8.895328 2.628186 5.290388
Si 6.547217 8.202146 1.190060
Si 1.794278 5.287693 10.512107
Si 4.738233 9.320438 1.341693
Si 6.553004 8.225629 6.659460
Si 2.913283 1.751802 7.710751
Si 6.452405 1.825679 1.972060
Si 6.554877 1.232599 7.622140
Si 8.585723 4.999088 1.359097
Si 2.997200 6.878864 2.017286
Si 5.529097 10.149251 5.970962
Si 4.168116 7.202519 6.587081
Si 9.173529 3.002331 2.809309
Si 3.265000 9.501466 9.615856
Si 5.693836 5.333589 9.081325
Si 0.595102 3.952695 1.151875
Si 10.067035 7.021879 6.660775
Si 4.197871 9.726254 4.171984
Si 5.537259 2.856713 6.055510
Si 8.092908 8.523516 4.561617
Si 9.294044 7.514399 10.723634
Si 1.509612 10.812202 7.416998
Si 0.795471 7.133617 8.960619
Si 7.366183 10.669589 2.688288
Si 0.737144 10.615134 4.950478
Si 2.538670 8.106517 7.488654
Si 3.598656 6.928987 10.107772
Si 5.635993 7.915314 9.375595
Si 10.780787 8.141494 4.619171
Si 8.591277 8.183155 1.962245
Si 8.096660 6.696440 8.263157
Si 4.697663 0.554201 0.801886
Si 0.796337 0.409551 2.685535
Si 7.353646 0.667843 5.390807
Si 4.390010 0.961528 9.215665
Si 10.647676 9.311366 7.941593
Si 9.446128 0.584039 2.136210
Si 8.223524 9.904130 7.967530
Si 5.938933 2.842133 9.594486
Si 1.821689 9.990475 1.274238
Si 4.499521 4.917712 1.365652
Si 1.898145 3.501972 8.911066
Si 10.604818 5.513290 3.688760
Si 9.590944 10.732173 5.972476
Si 9.571498 4.744097 5.804720
Si 2.396638 4.859648 3.582601
Si 0.719873 2.782067 4.428199
Si 7.744030 6.095788 3.741395
Si 5.915447 4.167931 3.133128
Si 0.642067 8.066776 1.987581
Si 6.789112 5.748458 0.413563
Si 3.873118 2.812736 0.778967
Si 0.131974 9.751154 10.423883
64
Step 1430
Si 8.853036 0.619543 10.534005
Si 9.189953 1.949872 8.243935
Si 4.446773 1.759815 4.161822
Si 2.760250 2.568041 2.847873
Si 0.391832 3.772073 7.015724
Si 7.560396 4.244481 7.352378
Si 7.737320 2.690934 0.177717
Si 4.096822 4.918438 7.309433
Si 2.060125 5.237418 6.581083
Si 2.532719 7.586987 4.422387
Si 9.792859 3.947702 9.696310
Si 9.044086 2.591309 5.374752
Si 6.605667 8.247112 1.173677
Si 1.685423 5.274969 10.528811
Si 4.570134 9.177612 1.457650
Si 6.579681 8.070593 6.634846
Si 2.830727 1.806864 7.668396
Si 6.444452 1.898080 1.923334
Si 6.445353 1.381193 7.520104
Si 8.759002 5.066314 1.406650
Si 3.067386 6.797336 2.055752
Si 5.591178 10.057521 5.884944
Si 4.221776 7.155834 6.607763
Si 9.155596 3.021580 2.828928
Si 3.167860 9.697958 9.601463
Si 5.663753 5.175826 8.900912
Si 0.523861 3.874240 1.148943
Si 10.085969 7.149960 6.673314
Si 4.293548 9.673936 4.079274
Si 5.436008 2.872617 6.067864
Si 8.129158 8.539966 4.598207
Si 9.330531 7.468139 10.718866
Si 1.578374 0.078253 7.232605
Si 0.706790 7.061714 9.079423
Si 7.359075 10.638828 2.673481
Si 0.656827 10.447365 4.915250
Si 2.213497 8.235155 7.501506
Si 3.476383 6.820082 10.111886
Si 5.600018 7.822425 9.301492
Si 10.670843 8.172168 4.567568
Si 8.646441 8.127774 1.964086
Si 8.029861 6.723822 8.218720
Si 4.651440 0.606823 0.750185
Si 0.930404 0.463945 2.720036
Si 7.349899 0.528674 5.175236
Si 4.277923 1.084121 9.267609
Si 10.728112 9.277384 7.857366
Si 9.488397 0.546518 2.149139
Si 8.209948 9.755081 7.940275
Si 5.815662 2.880668 9.470629
Si 1.880701 10.004320 1.285868
Si 4.518923 4.857946 1.291412
Si 1.852954 3.504833 8.910647
Si 10.530997 5.623593 3.827396
Si 9.583838 10.743318 5.819093
Si 9.504627 4.875651 5.751867
Si 2.385934 4.992887 3.663420
Si 0.663918 2.712989 4.333243
Si 7.744236 6.158151 3.834496
Si 5.914122 4.062607 3.196931
Si 0.704178 8.005148 1.911955
Si 6.953030 5.821655 0.471609
Si 3.797148 2.778480 0.735048
Si 0.106283 9.877355 10.457393
64
Step 1440
Si 8.958509 0.606265 10.543862
Si 9.190029 1.829847 8.333605
Si 4.469416 1.697537 4.315660
Si 2.897410 2.775783 2.884540
Si 0.308200 3.702614 7.245845
Si 7.639941 4.200408 7.456998
Si 7.735535 2.756851 0.242896
Si 4.158388 5.009952 7.295811
Si 2.141298 5.290506 6.580587
Si 2.585885 7.568508 4.391374
Si 10.049224 3.915420 9.802176
Si 9.155055 2.504184 5.448823
Si 6.670229 8.304851 1.126913
Si 1.579474 5.224155 10.548209
Si 4.334010 9.046653 1.619591
Si 6.600356 7.959889 6.615163
Si 2.810703 1.914090 7.623171
Si 6.347588 1.938746 1.866391
Si 6.438019 1.494979 7.451083
Si 9.008847 5.141132 1.456490
Si 3.120526 6.805850 2.009332
Si 5.669037 9.944716 5.854496
Si 4.305077 7.172326 6.625225
Si 9.187788 3.008543 2.825105
Si 3.038338 9.812519 9.612247
Si 5.633537 5.009816 8.791874
Si 0.474732 3.792768 1.175439
Si 10.095510 7.270508 6.699373
Si 4.363832 9.643949 3.883254
Si 5.307224 2.923228 6.010842
Si 8.177560 8.569065 4.625324
Si 9.441383 7.438705 10.657166
Si 1.681481 0.158571 7.076614
Si 0.562529 6.959500 9.264862
Si 7.362759 10.601857 2.662884
Si 0.629232 10.289798 4.833282
Si 1.980828 8.319081 7.504398
Si 3.376291 6.702058 10.147658
Si 5.586184 7.745781 9.266972
Si 10.640094 8.162762 4.473241
Si 8.735048 8.147040 1.971498
Si 8.000460 6.786713 8.200030
Si 4.624996 0.638126 0.699736
Si 1.058735 0.499517 2.751171
Si 7.326765 0.397851 4.891073
Si 4.152567 1.178129 9.262893
Si 10.759087 9.290409 7.843117
Si 9.543695 0.509002 2.126202
Si 8.143762 9.659593 7.949853
Si 5.704400 2.942212 9.490230
Si 1.971529 10.018583 1.306150
Si 4.595585 4.860542 1.180275
Si 1.828364 3.550992 8.911026
Si 10.534552 5.747689 3.863662
Si 9.512598 10.831510 5.733276
Si 9.420901 5.015335 5.714010
Si 2.293533 5.085101 3.823422
Si 0.607818 2.652720 4.244078
Si 7.716139 6.141513 3.888662
Si 5.883801 3.965333 3.311828
Si 0.724575 7.887272 1.899888
Si 6.994325 5.876475 0.511564
Si 3.707033 2.757190 0.720965
Si 0.031692 9.931376 10.440601
64
Step 1450
Si 9.074120 0.559702 10.565775
Si 9.122212 1.700615 8.367631
Si 4.500445 1.546949 4.382286
Si 2.974491 2.969288 2.926541
Si 0.127529 3.640881 7.377975
Si 7.787222 4.098563 7.520650
Si 7.765480 2.867021 0.259781
Si 4.170046 4.963679 7.190452
Si 2.058201 5.397179 6.497526
Si 2.614516 7.594810 4.465342
Si 10.151135 3.840456 9.885472
Si 9.250408 2.427791 5.566874
Si 6.667138 8.374117 1.062142
Si 1.525488 5.181660 10.577020
Si 4.113184 8.925589 1.768990
Si 6.590394 7.865539 6.592685
Si 2.841830 2.021314 7.538588
Si 6.246942 1.943991 1.870152
Si 6.532941 1.570453 7.361696
Si 9.239782 5.223209 1.550202
Si 3.165001 6.854501 1.902293
Si 5.721756 9.877126 5.822635
Si 4.414032 7.332090 6.613149
Si 9.201595 2.954612 2.817547
Si 2.838603 9.816797 9.638087
Si 5.732245 4.997945 8.865333
Si 0.480277 3.682412 1.280115
Si 10.119574 7.354643 6.718124
Si 4.441872 9.654420 3.720538
Si 5.196356 3.047074 6.003450
Si 8.219607 8.524973 4.673620
Si 9.576691 7.439641 10.547829
Si 1.787354 0.221353 6.915631
Si 0.401738 6.850309 9.483343
Si 7.379164 10.592040 2.599250
Si 0.629418 10.171322 4.721218
Si 1.876691 8.326612 7.492841
Si 3.331013 6.638412 10.197658
Si 5.572422 7.655480 9.286156
Si 10.670732 8.124642 4.356280
Si 8.841868 8.160255 2.006877
Si 8.007201 6.840720 8.222607
Si 4.603858 0.567448 0.732405
Si 1.139549 0.534784 2.786251
Si 7.241766 0.329896 4.607458
Si 4.063070 1.233731 9.171765
Si 10.688808 9.384309 7.864673
Si 9.608588 0.493060 2.106483
Si 8.092777 9.654142 7.953243
Si 5.631134 2.914316 9.563305
Si 2.055340 10.052966 1.308174
Si 4.742656 4.897397 1.041400
Si 1.913920 3.601345 8.933926
Si 10.592967 5.868559 3.828675
Si 9.421982 0.119389 5.757525
Si 9.289524 5.144374 5.720542
Si 2.142609 5.133223 4.029123
Si 0.588953 2.612058 4.139972
Si 7.670513 6.068713 3.881400
Si 5.887611 3.901869 3.432191
Si 0.752621 7.738313 1.904346
Si 6.943886 5.895447 0.501994
Si 3.575541 2.834631 0.734917
Si 10.839625 9.911840 10.371853
64
Step 1460
Si 9.190179 0.545009 10.625917
Si 9.024189 1.484824 8.409146
Si 4.557600 1.332611 4.379930
Si 3.012983 3.153767 3.004914
Si 10.766210 3.624058 7.460727
Si 7.930976 3.993112 7.584930
Si 7.802024 2.995436 0.276856
Si 4.201132 4.886607 7.080652
Si 1.916601 5.535763 6.410061
Si 2.681238 7.659177 4.640376
Si 10.078641 3.722957 9.955847
Si 9.365433 2.382656 5.684415
Si 6.604040 8.438770 0.966096
Si 1.590049 5.158569 10.651850
Si 3.932425 8.798069 1.795327
Si 6.566666 7.789406 6.567144
Si 2.907533 2.079691 7.431418
Si 6.204879 1.927550 1.897243
Si 6.656226 1.590463 7.268407
Si 9.434301 5.347830 1.671867
Si 3.213708 6.848028 1.809810
Si 5.771023 9.896733 5.776565
Si 4.481226 7.476132 6.636699
Si 9.119635 2.859387 2.789248
Si 2.613904 9.774224 9.655528
Si 5.851951 5.076794 8.941668
Si 0.562205 3.533204 1.432128
Si 10.133630 7.377771 6.773579
Si 4.545656 9.715168 3.705787
Si 5.080026 3.201279 6.039571
Si 8.252865 8.417428 4.747919
Si 9.565548 7.494942 10.551728
Si 1.872798 0.242364 6.725025
Si 0.381859 6.739393 9.553530
Si 7.407926 10.553642 2.383334
Si 0.632103 10.107682 4.643024
Si 1.900092 8.279840 7.502262
Si 3.312335 6.672834 10.205955
Si 5.535761 7.544053 9.331659
Si 10.766019 8.141278 4.236157
Si 8.937962 8.137976 2.068239
Si 8.041809 6.863759 8.262456
Si 4.570265 0.472638 0.769738
Si 1.163065 0.538345 2.806583
Si 7.118361 0.358011 4.482708
Si 4.009378 1.241235 9.067672
Si 10.571849 9.557463 7.889981
Si 9.672214 0.500070 2.073637
Si 8.024207 9.759584 7.916401
Si 5.611421 2.831617 9.676778
Si 2.063054 10.114393 1.279406
Si 4.883484 4.971684 0.917155
Si 2.073393 3.650937 8.916682
Si 10.612713 5.927524 3.802228
Si 9.329389 0.232963 5.833022
Si 9.150996 5.262901 5.740062
Si 1.951182 5.147551 4.236014
Si 0.603050 2.592163 4.006722
Si 7.655066 5.991821 3.802149
Si 5.901668 3.851700 3.513519
Si 0.779884 7.615309 1.816865
Si 6.893739 5.897629 0.474158
Si 3.429792 2.952130 0.741146
Si 10.836480 9.854093 10.286367
64
Step 1470
Si 9.307759 0.579854 10.681188
Si 8.931991 1.230505 8.564655
Si 4.606265 1.196595 4.290993
Si 3.088739 3.329988 3.115495
Si 10.622272 3.646253 7.544020
Si 8.003616 3.942402 7.696525
Si 7.861271 3.161588 0.305278
Si 4.214271 4.901349 7.005056
Si 1.771193 5.656264 6.461738
Si 2.813322 7.792599 4.828009
Si 9.938993 3.584217 10.046595
Si 9.491563 2.400212 5.711558
Si 6.486975 8.494436 0.859213
Si 1.703554 5.086123 10.733916
Si 3.865393 8.813338 1.709556
Si 6.625095 7.695698 6.527155
Si 2.990654 2.142825 7.317494
Si 6.148545 1.922442 1.940294
Si 6.759980 1.583953 7.171215
Si 9.586295 5.448579 1.749692
Si 3.207871 6.709307 1.771734
Si 5.856489 9.979069 5.807198
Si 4.384595 7.509330 6.696972
Si 8.996227 2.741996 2.741176
Si 2.411571 9.733172 9.617151
Si 5.950923 5.135768 8.994761
Si 0.663650 3.375974 1.561245
Si 10.185148 7.379635 6.879330
Si 4.593454 9.760573 3.737255
Si 4.980896 3.272387 6.044661
Si 8.275162 8.304206 4.808675
Si 9.422467 7.578828 10.617879
Si 1.889917 0.140131 6.521683
Si 0.472013 6.643915 9.475695
Si 7.443233 10.483362 2.138417
Si 0.667501 10.115897 4.642905
Si 1.987633 8.227889 7.534241
Si 3.305781 6.763205 10.165868
Si 5.481286 7.448159 9.374114
Si 0.000024 8.182822 4.159370
Si 8.975681 8.112788 2.139008
Si 8.104625 6.897240 8.292850
Si 4.516922 0.383210 0.792567
Si 1.125778 0.554567 2.785940
Si 7.065833 0.444452 4.421913
Si 4.004737 1.186047 9.024252
Si 10.478382 9.759843 7.946556
Si 9.713885 0.519314 2.050056
Si 7.881728 9.906290 7.866423
Si 5.593474 2.716887 9.801098
Si 2.051297 10.171505 1.275307
Si 4.997831 5.017437 0.876044
Si 2.256442 3.755260 8.871306
Si 10.632358 5.894786 3.766521
Si 9.244000 0.249388 5.833946
Si 9.005434 5.350302 5.755497
Si 1.762075 5.143379 4.410620
Si 0.634038 2.559555 3.883813
Si 7.613841 5.960310 3.721843
Si 5.859555 3.826075 3.550138
Si 0.857315 7.535805 1.621008
Si 6.915340 5.877583 0.458568
Si 3.305354 3.070932 0.698305
Si 10.856499 9.734198 10.190428
64
Step 1480
Si 9.460191 0.629305 10.712550
Si 8.846695 1.103715 8.732200
Si 4.597782 1.146277 4.137188
Si 3.205057 3.508785 3.259825
Si 10.569477 3.715685 7.648488
Si 8.045473 3.931113 7.831403
Si 7.907007 3.333910 0.372190
Si 4.184279 5.061836 7.040393
Si 1.608126 5.748784 6.683399
Si 2.931991 7.994165 4.920291
Si 9.811255 3.437397 10.156069
Si 9.622690 2.506170 5.648223
Si 6.342993 8.518793 0.729694
Si 1.726375 4.979198 10.785251
Si 3.928056 8.859836 1.676251
Si 6.700290 7.575088 6.512780
Si 3.072014 2.198704 7.201329
Si 6.105884 1.939693 1.956884
Si 6.814594 1.647004 7.082539
Si 9.691242 5.473120 1.743214
Si 3.192621 6.547907 1.805409
Si 5.940904 10.004549 5.937259
Si 4.262713 7.469472 6.783092
Si 8.861879 2.622947 2.682967
Si 2.270605 9.696748 9.537668
Si 6.016122 5.109629 8.967812
Si 0.692757 3.261958 1.616364
Si 10.287096 7.373750 6.993545
Si 4.544754 9.735004 3.727636
Si 4.947113 3.183925 5.984899
Si 8.313069 8.204937 4.897523
Si 9.227292 7.627090 10.646900
Si 1.889843 10.858298 6.346531
Si 0.569249 6.592347 9.362533
Si 7.486517 10.427281 1.924041
Si 0.760876 10.208915 4.755730
Si 2.086666 8.196157 7.628967
Si 3.319181 6.949842 10.053718
Si 5.403262 7.417715 9.397287
Si 0.069782 8.115886 4.127032
Si 8.951877 8.119999 2.194493
Si 8.171785 6.966472 8.321966
Si 4.453956 0.326289 0.778455
Si 1.083795 0.577601 2.748923
Si 7.149138 0.576234 4.338993
Si 4.017299 1.106568 9.054114
Si 10.444721 9.943424 7.926950
Si 9.685165 0.533590 2.056800
Si 7.679736 9.970767 7.826341
Si 5.578880 2.592646 9.921900
Si 2.005856 10.192574 1.262334
Si 5.083291 4.973368 0.945883
Si 2.433896 3.859414 8.780088
Si 10.616265 5.817867 3.761309
Si 9.162400 0.176113 5.726874
Si 8.881339 5.397088 5.764010
Si 1.615762 5.112611 4.508826
Si 0.675022 2.550353 3.826840
Si 7.557724 5.932033 3.610814
Si 5.751301 3.842897 3.564066
Si 0.977155 7.476010 1.368969
Si 7.062111 5.877139 0.541384
Si 3.264054 3.128778 0.619418
Si 10.829718 9.621228 10.127158
64
Step 1490
Si 9.663571 0.612736 10.784631
Si 8.744382 1.084253 8.823446
Si 4.566526 1.131070 3.963464
Si 3.332050 3.720434 3.395542
Si 10.623436 3.823343 7.783871
Si 8.005704 3.925559 8.000463
Si 7.940447 3.475640 0.462079
Si 4.179120 5.259651 7.124762
Si 1.429921 5.777345 6.908291
Si 3.030767 8.233500 4.899827
Si 9.757618 3.340015 10.265865
Si 9.758513 2.642769 5.539878
Si 6.181197 8.550288 0.596235
Si 1.690040 4.836257 10.816796
Si 4.041442 8.822513 1.686598
Si 6.750294 7.435726 6.517990
Si 3.128838 2.165384 7.089511
Si 6.082255 1.950656 1.935382
Si 6.843663 1.799271 7.017884
Si 9.771182 5.429662 1.667732
Si 3.191134 6.416636 1.908397
Si 5.979894 9.995411 6.072690
Si 4.222430 7.436492 6.846782
Si 8.732616 2.560777 2.666362
Si 2.199198 9.666682 9.506472
Si 6.062330 5.041154 8.882192
Si 0.636031 3.243964 1.608977
Si 10.376664 7.405938 7.025815
Si 4.455879 9.649718 3.763860
Si 4.906438 3.040449 5.918943
Si 8.383438 8.133972 5.020584
Si 9.032050 7.640546 10.642113
Si 2.019377 10.794244 6.376408
Si 0.629514 6.565494 9.280448
Si 7.476830 10.349545 1.705070
Si 0.732794 10.206041 4.752407
Si 2.174663 8.249587 7.779358
Si 3.352479 7.196789 9.941005
Si 5.385835 7.411968 9.401765
Si 0.157602 8.011155 4.146190
Si 8.942813 8.136823 2.282033
Si 8.177697 7.060516 8.405673
Si 4.419357 0.349169 0.737409
Si 1.043350 0.531097 2.729498
Si 7.248951 0.715635 4.232100
Si 3.982790 0.990534 9.114563
Si 10.463850 10.099535 7.796718
Si 9.640024 0.507122 2.065307
Si 7.447175 9.963820 7.783654
Si 5.616538 2.491353 9.996957
Si 1.930381 10.150993 1.173782
Si 5.100428 4.907394 1.055204
Si 2.576964 3.952191 8.658824
Si 10.501113 5.784722 3.751800
Si 9.119960 0.073658 5.573945
Si 8.789814 5.407304 5.745314
Si 1.569881 5.088201 4.639760
Si 0.683679 2.605600 3.857947
Si 7.513426 5.872226 3.461907
Si 5.656338 3.917725 3.543658
Si 1.013751 7.454173 1.102476
Si 7.273060 5.890136 0.680294
Si 3.327366 3.089997 0.512760
Si 10.779148 9.511441 10.156313
64
Step 1500
Si 9.871091 0.542962 10.806185
Si 8.593081 1.074488 8.844598
Si 4.544389 1.144000 3.776883
Si 3.408854 3.942903 3.488834
Si 10.695232 3.941679 7.926472
Si 7.982212 3.907895 8.179550
Si 7.889027 3.608705 0.590355
Si 4.194646 5.412885 7.213056
Si 1.254418 5.706104 7.022288
Si 3.058291 8.501576 4.866588
Si 9.803197 3.280052 10.316290
Si 9.869965 2.803396 5.410464
Si 6.044213 8.567715 0.457906
Si 1.635343 4.735180 10.850686
Si 4.179986 8.746004 1.650214
Si 6.808152 7.298828 6.496307
Si 3.145149 2.043043 7.048269
Si 6.049785 1.966958 1.884389
Si 6.882294 1.957000 6.901827
Si 9.864658 5.360352 1.591880
Si 3.201975 6.266979 2.026697
Si 5.973916 10.007031 6.121549
Si 4.227488 7.451230 6.886808
Si 8.698119 2.569027 2.687846
Si 2.132026 9.722000 9.508131
Si 6.111741 4.938317 8.854090
Si 0.531174 3.257732 1.641844
Si 10.390906 7.525574 6.993264
Si 4.381112 9.561198 3.851701
Si 4.871417 2.917670 5.837954
Si 8.479318 8.119237 5.092844
Si 8.870322 7.661827 10.600382
Si 2.231499 10.751735 6.528448
Si 0.597380 6.542395 9.295609
Si 7.448748 10.208378 1.476497
Si 0.616378 10.152364 4.674981
Si 2.255667 8.412859 7.832479
Si 3.351074 7.373961 9.966303
Si 5.502306 7.426273 9.414545
Si 0.233108 7.904883 4.192310
Si 8.913382 8.152582 2.415713
Si 8.156250 7.167755 8.499417
Si 4.396702 0.408157 0.731989
Si 0.991092 0.466172 2.753586
Si 7.335388 0.834171 4.168553
Si 3.900146 0.884098 9.140705
Si 10.469406 10.222081 7.590565
Si 9.601393 0.471445 2.127236
Si 7.296414 9.934689 7.783097
Si 5.671909 2.471242 10.024417
Si 1.858210 10.098486 1.100676
Si 5.118601 4.797529 1.145601
Si 2.707202 3.992930 8.521110
Si 10.393884 5.730738 3.807715
Si 9.144994 10.807834 5.454648
Si 8.718761 5.362164 5.700141
Si 1.521671 5.053949 4.796506
Si 0.685102 2.687027 3.904306
Si 7.510116 5.809315 3.324237
Si 5.625909 4.009180 3.518172
Si 1.001236 7.435886 0.839948
Si 7.427310 5.931452 0.806838
Si 3.440166 3.016208 0.423444
Si 10.681111 9.388512 10.198047
64
Step 1510
Si 10.066399 0.507275 10.791944
Si 8.440973 1.073298 8.845062
Si 4.508442 1.179572 3.605820
Si 3.381723 4.140181 3.552452
Si 10.703953 4.035855 8.046253
Si 8.013266 3.898513 8.324110
Si 7.786036 3.694896 0.709073
Si 4.211270 5.462204 7.330262
Si 1.117151 5.590406 7.033092
Si 3.004242 8.726936 4.915190
Si 9.866513 3.181918 10.327175
Si 9.923029 2.974087 5.346491
Si 6.020898 8.564118 0.332555
Si 1.580196 4.667387 0.035068
Si 4.290876 8.673826 1.624596
Si 6.826909 7.180824 6.493408
Si 3.136629 1.917985 7.086825
Si 6.049053 1.968024 1.795871
Si 6.909961 2.054121 6.711220
Si 10.045248 5.337848 1.559716
Si 3.182407 6.146251 2.084820
Si 5.939072 10.056086 6.090427
Si 4.302947 7.558700 6.835460
Si 8.718457 2.629261 2.722902
Si 2.078198 9.936697 9.561665
Si 6.192193 4.880104 8.868660
Si 0.434961 3.215883 1.693755
Si 10.340805 7.706859 6.932293
Si 4.384812 9.506874 3.873863
Si 4.868943 2.819466 5.742025
Si 8.585322 8.174981 5.135322
Si 8.723182 7.701577 10.571278
Si 2.421591 10.700522 6.679238
Si 0.516041 6.512059 9.397554
Si 7.412811 10.031101 1.292551
Si 0.524004 10.076073 4.636544
Si 2.263592 8.569961 7.749350
Si 3.279844 7.442838 10.099442
Si 5.696078 7.444600 9.393324
Si 0.318242 7.823966 4.250002
Si 8.864462 8.192417 2.526592
Si 8.100049 7.271653 8.600478
Si 4.332797 0.427894 0.804565
Si 0.913165 0.469038 2.776547
Si 7.400253 0.903103 4.189265
Si 3.774850 0.753783 9.133616
Si 10.438022 10.302081 7.391082
Si 9.536174 0.436236 2.217360
Si 7.246918 9.899040 7.789592
Si 5.767204 2.512239 9.986084
Si 1.847462 10.011753 1.053037
Si 5.128738 4.704587 1.198423
Si 2.821353 3.960036 8.370659
Si 10.300696 5.683079 3.883430
Si 9.170022 10.685319 5.339097
Si 8.682328 5.245465 5.702049
Si 1.480509 4.981317 4.938375
Si 0.763204 2.811833 3.916411
Si 7.510778 5.726891 3.239155
Si 5.702197 4.096634 3.524578
Si 1.004576 7.427147 0.638476
Si 7.511014 6.007094 0.886244
Si 3.530479 2.932901 0.343028
Si 10.552496 9.241325 10.197184
64
Step 1520
Si 10.206323 0.527431 10.764150
Si 8.281927 1.104841 8.820323
Si 4.498921 1.181197 3.540702
Si 3.316236 4.313483 3.655304
Si 10.622609 4.057374 8.081716
Si 8.095842 3.857134 8.391509
Si 7.734633 3.745294 0.775477
Si 4.277217 5.489049 7.442171
Si 1.032634 5.547133 7.055572
Si 2.900697 8.900269 4.960871
Si 9.934623 3.042542 10.361096
Si 9.920605 3.136799 5.321066
Si 6.015855 8.614649 0.291693
Si 1.628806 4.563066 0.064995
Si 4.333979 8.597703 1.708477
Si 6.865116 7.081615 6.482612
Si 3.172240 1.909076 7.162398
Si 6.120818 1.896994 1.736171
Si 6.931871 2.070147 6.549361
Si 10.276486 5.384262 1.582206
Si 3.101762 6.103161 2.038737
Si 5.943975 10.173549 6.046180
Si 4.392716 7.709858 6.770778
Si 8.797448 2.699605 2.789539
Si 2.010292 10.179998 9.649616
Si 6.221545 4.852318 8.882008
Si 0.348250 3.138420 1.720664
Si 10.327207 7.886355 6.900248
Si 4.415196 9.474992 3.808402
Si 4.846160 2.721619 5.636070
Si 8.664011 8.217954 5.138310
Si 8.684534 7.765882 10.625929
Si 2.535273 10.602398 6.714286
Si 0.394094 6.466483 9.447538
Si 7.417005 9.895011 1.168814
Si 0.483487 10.017481 4.630906
Si 2.205229 8.641209 7.644506
Si 3.191664 7.445512 10.260161
Si 5.801602 7.392563 9.251212
Si 0.430379 7.714706 4.292627
Si 8.797248 8.247125 2.647919
Si 8.025045 7.375155 8.578940
Si 4.243892 0.415958 0.876333
Si 0.856512 0.499289 2.793587
Si 7.419167 0.946384 4.283247
Si 3.684662 0.637112 9.181858
Si 10.355869 10.347358 7.288703
Si 9.411918 0.386575 2.259341
Si 7.265606 9.919742 7.735225
Si 5.891846 2.538295 9.864021
Si 1.891252 9.941178 1.067859
Si 5.096759 4.650379 1.203745
Si 2.878353 3.885606 8.241571
Si 10.256865 5.650297 3.954320
Si 9.153578 10.589182 5.219000
Si 8.634577 5.116244 5.782678
Si 1.461716 4.917283 5.051949
Si 0.881512 2.900847 3.902430
Si 7.486001 5.689377 3.207073
Si 5.814505 4.184225 3.566339
Si 1.058858 7.407659 0.563160
Si 7.576185 6.110755 0.959427
Si 3.556961 2.864948 0.212708
Si 10.367859 9.105891 10.116151
64
Step 1530
Si 10.349149 0.552159 10.732335
Si 8.151679 1.140472 8.761875
Si 4.542194 1.194763 3.556904
Si 3.268605 4.491872 3.771869
Si 10.523744 4.025490 8.024323
Si 8.202907 3.804806 8.402531
Si 7.775391 3.784470 0.781495
Si 4.361157 5.489185 7.546026
Si 0.962158 5.593990 7.197601
Si 2.866520 9.008818 4.855451
Si 9.969069 2.895874 10.399780
Si 9.848978 3.195678 5.346394
Si 5.892408 8.601939 0.232120
Si 1.790148 4.449098 0.045307
Si 4.307081 8.507206 1.882363
Si 6.968986 7.002073 6.414366
Si 3.247159 1.969217 7.210611
Si 6.251405 1.803060 1.703164
Si 6.945322 2.009706 6.437973
Si 10.464054 5.489424 1.633015
Si 3.026301 6.107005 1.924308
Si 5.905383 10.246589 5.994168
Si 4.480705 7.870415 6.704565
Si 8.875364 2.731271 2.831982
Si 1.861892 10.336039 9.731069
Si 6.218687 4.862281 8.873135
Si 0.261439 3.053716 1.754019
Si 10.354901 8.015354 6.937336
Si 4.473342 9.466951 3.741816
Si 4.821131 2.617404 5.535192
Si 8.667275 8.244099 5.137235
Si 8.738020 7.776583 10.747950
Si 2.603624 10.611389 6.689620
Si 0.257525 6.426416 9.386553
Si 7.508080 9.892804 1.164608
Si 0.508666 9.993400 4.572165
Si 2.073880 8.577067 7.656135
Si 3.100830 7.489472 10.383378
Si 5.787460 7.324378 9.146204
Si 0.547307 7.605289 4.307849
Si 8.713175 8.266377 2.778685
Si 7.980307 7.463108 8.465189
Si 4.148981 0.352488 0.928816
Si 0.824964 0.501986 2.786285
Si 7.383009 1.013396 4.393775
Si 3.704886 0.625147 9.300888
Si 10.227510 10.390637 7.352755
Si 9.263583 0.343720 2.261986
Si 7.336300 9.998498 7.607988
Si 5.997470 2.531611 9.707464
Si 1.884540 9.922092 1.161882
Si 5.000605 4.609428 1.180245
Si 2.867586 3.776646 8.174406
Si 10.263321 5.650749 3.938883
Si 9.086876 10.527041 5.087610
Si 8.541436 4.986372 5.916251
Si 1.517000 4.858390 5.109849
Si 1.036777 2.915500 3.905393
Si 7.491823 5.746867 3.265413
Si 5.851000 4.199747 3.645830
Si 1.133044 7.383455 0.593177
Si 7.618583 6.224722 1.000133
Si 3.580406 2.798913 0.035296
Si 10.232907 9.101883 9.968994
64
Step 1540
Si 10.447904 0.588561 10.667874
Si 8.091867 1.177601 8.731847
Si 4.618317 1.224546 3.596980
Si 3.341411 4.691579 3.842353
Si 10.469708 3.938893 7.916660
Si 8.316976 3.767212 8.364028
Si 7.794373 3.837467 0.715789
Si 4.397695 5.425821 7.622939
Si 0.952239 5.639143 7.352473
Si 2.808922 9.096443 4.744832
Si 9.965784 2.739414 10.446662
Si 9.787624 3.160421 5.405827
Si 5.768611 8.539492 0.184134
Si 1.956206 4.335660 10.841918
Si 4.276610 8.346531 1.959143
Si 7.108355 6.901491 6.280584
Si 3.368516 1.938168 7.188198
Si 6.411021 1.713263 1.662737
Si 6.973281 2.000012 6.342244
Si 10.560605 5.652298 1.683265
Si 2.989746 6.085262 1.833821
Si 5.831996 10.210185 5.933441
Si 4.580167 8.003494 6.666333
Si 8.893362 2.737239 2.858972
Si 1.676695 10.413503 9.747844
Si 6.222764 4.866848 8.848369
Si 0.190534 3.005078 1.781421
Si 10.432743 8.112753 7.014154
Si 4.599542 9.541890 3.749565
Si 4.773379 2.551427 5.425851
Si 8.575406 8.256470 5.178110
Si 8.782228 7.747114 0.034671
Si 2.646871 10.704240 6.671698
Si 0.168825 6.432030 9.336760
Si 7.619379 9.956764 1.179960
Si 0.566339 10.009738 4.546795
Si 1.906819 8.409683 7.803407
Si 3.014738 7.611865 10.379032
Si 5.715036 7.311284 9.157454
Si 0.624050 7.520940 4.309377
Si 8.657929 8.253889 2.862984
Si 7.957766 7.584391 8.340635
Si 4.077952 0.308891 0.998920
Si 0.811727 0.499494 2.735180
Si 7.304929 1.076390 4.441276
Si 3.775338 0.644357 9.398421
Si 10.068895 10.426026 7.503167
Si 9.119946 0.309655 2.257400
Si 7.463286 10.071576 7.450883
Si 6.043185 2.497189 9.623662
Si 1.869681 9.903022 1.296105
Si 4.943694 4.547037 1.208866
Si 2.788947 3.817634 8.198320
Si 10.278361 5.678452 3.864714
Si 9.061460 10.496371 4.999571
Si 8.361341 4.911084 6.036006
Si 1.550798 4.817810 5.211729
Si 1.185445 2.852196 3.933229
Si 7.529390 5.779487 3.391207
Si 5.817265 4.132583 3.697943
Si 1.137698 7.378600 0.655603
Si 7.631368 6.308173 1.039060
Si 3.629589 2.771373 10.680337
Si 10.153373 9.178495 9.751248
64
Step 1550
Si 10.473696 0.606584 10.635045
Si 8.059441 1.231778 8.742077
Si 4.703364 1.231278 3.548240
Si 3.476251 4.906982 3.880981
Si 10.516613 3.767701 7.817236
Si 8.340750 3.780471 8.342354
Si 7.786062 3.881962 0.575473
Si 4.342625 5.339393 7.628591
Si 1.030595 5.643286 7.428896
Si 2.653747 9.141335 4.734963
Si 9.953127 2.637734 10.520892
Si 9.764703 3.115634 5.407269
Si 5.689648 8.500286 0.214454
Si 2.023981 4.283525 10.777994
Si 4.230364 8.178614 1.962062
Si 7.210657 6.787262 6.116757
Si 3.527127 1.902920 7.154531
Si 6.539175 1.665863 1.594155
Si 7.009796 2.089212 6.319066
Si 10.602397 5.767387 1.705897
Si 3.012494 6.004933 1.816118
Si 5.701744 10.096667 5.873556
Si 4.685340 8.099257 6.679276
Si 8.902325 2.798943 2.934797
Si 1.574282 10.458963 9.700335
Si 6.275058 4.809671 8.887396
Si 0.118475 3.079301 1.784159
Si 10.542859 8.193746 7.039652
Si 4.817006 9.706066 3.750344
Si 4.659523 2.565164 5.386081
Si 8.490848 8.271295 5.242839
Si 8.908460 7.774721 0.103352
Si 2.666700 10.729633 6.637365
Si 0.085501 6.496673 9.370198
Si 7.686467 9.985714 1.143222
Si 0.617179 10.058750 4.572421
Si 1.808418 8.253574 7.990937
Si 2.929367 7.815978 10.256921
Si 5.671669 7.350923 9.188434
Si 0.672663 7.476042 4.348316
Si 8.611433 8.261736 2.949290
Si 7.908762 7.743801 8.282741
Si 4.065246 0.238963 1.136152
Si 0.814410 0.505668 2.666175
Si 7.309447 1.089350 4.355486
Si 3.824547 0.667898 9.429745
Si 9.932225 10.469861 7.641909
Si 9.045679 0.335893 2.215896
Si 7.614838 10.073100 7.334759
Si 6.044710 2.457613 9.651828
Si 1.876747 9.851310 1.424794
Si 4.967209 4.429706 1.253147
Si 2.696737 3.919384 8.241332
Si 10.261250 5.642284 3.798281
Si 9.090360 10.499926 4.932905
Si 8.113092 4.850567 6.081098
Si 1.528956 4.774642 5.335666
Si 1.267589 2.736288 3.956385
Si 7.594586 5.732964 3.544770
Si 5.801139 4.065386 3.662196
Si 1.012894 7.388501 0.736980
Si 7.524220 6.250017 1.094841
Si 3.733241 2.760346 10.481369
Si 10.046197 9.215571 9.563587
64
Step 1560
Si 10.450201 0.591240 10.636397
Si 8.042608 1.328998 8.815337
Si 4.784000 1.232855 3.436788
Si 3.587296 5.091919 3.952347
Si 10.641411 3.560195 7.751659
Si 8.318820 3.835009 8.369475
Si 7.793378 3.918007 0.424269
Si 4.351414 5.365508 7.620802
Si 1.119051 5.592368 7.463142
Si 2.552295 9.180771 4.763223
Si 9.886303 2.676105 10.546252
Si 9.751938 3.088434 5.332037
Si 5.696276 8.470255 0.268495
Si 1.995837 4.267191 10.787784
Si 4.148014 8.057469 1.999376
Si 7.155118 6.759417 6.010929
Si 3.658366 1.869182 7.168404
Si 6.620177 1.691265 1.535383
Si 7.059676 2.200969 6.356093
Si 10.625924 5.788113 1.664671
Si 3.045159 5.916171 1.798373
Si 5.587709 9.986226 5.866159
Si 4.765692 8.095570 6.760220
Si 8.881387 2.929616 3.030556
Si 1.629438 10.475630 9.604939
Si 6.304800 4.741628 8.969005
Si 0.070942 3.287187 1.724520
Si 10.644871 8.185106 6.945661
Si 4.999029 9.864186 3.712947
Si 4.543452 2.615387 5.370503
Si 8.501876 8.358417 5.272208
Si 9.020182 7.796697 0.206616
Si 2.690638 10.687825 6.638292
Si 10.813884 6.522167 9.404087
Si 7.639854 9.839478 1.029175
Si 0.646287 10.151202 4.590633
Si 1.835995 8.180430 8.148860
Si 2.875202 8.068757 10.116892
Si 5.646710 7.409227 9.227388
Si 0.707230 7.405586 4.434905
Si 8.540857 8.256863 2.962399
Si 7.825648 7.867302 8.264713
Si 4.104583 0.137200 1.270130
Si 0.785181 0.497329 2.625115
Si 7.331721 1.047989 4.259535
Si 3.798067 0.642773 9.407143
Si 9.862967 10.629745 7.709907
Si 9.135957 0.410030 2.172853
Si 7.663111 10.070986 7.209161
Si 6.060077 2.425145 9.717706
Si 1.922833 9.746885 1.505205
Si 5.076678 4.280748 1.239550
Si 2.561602 3.989785 8.249445
Si 10.188847 5.558952 3.848531
Si 9.130871 10.561475 4.856171
Si 7.945532 4.628965 6.108936
Si 1.515243 4.761676 5.392061
Si 1.351842 2.639987 3.989381
Si 7.660220 5.597680 3.634137
Si 5.749792 4.028361 3.560305
Si 0.864627 7.423158 0.823572
Si 7.365020 6.190307 1.136238
Si 3.881528 2.745448 10.360010
Si 9.896772 9.225440 9.526976
64
Step 1570
Si 10.381914 0.543583 10.661013
Si 8.017978 1.418388 8.898062
Si 4.869373 1.257001 3.353915
Si 3.677823 5.252365 4.043361
Si 10.724023 3.306008 7.722181
Si 8.406460 3.974197 8.368925
Si 7.824702 3.953275 0.329479
Si 4.434074 5.472471 7.649058
Si 1.184738 5.556895 7.495024
Si 2.543770 9.243202 4.795094
Si 9.838695 2.798315 10.542673
Si 9.767325 3.049943 5.244191
Si 5.697658 8.424116 0.331576
Si 1.919495 4.324186 0.012033
Si 4.074788 7.967258 2.006516
Si 7.047037 6.786711 5.953329
Si 3.715643 1.799378 7.227366
Si 6.681044 1.703718 1.464598
Si 7.064689 2.279466 6.378174
Si 10.592776 5.754617 1.643962
Si 3.097219 5.809741 1.745479
Si 5.488292 9.941311 5.845591
Si 4.800543 7.965630 6.898511
Si 8.831792 3.083177 3.088498
Si 1.720637 10.518310 9.499759
Si 6.278399 4.756382 9.028437
Si 0.062456 3.520184 1.648097
Si 10.698674 8.168567 6.767504
Si 5.138154 9.964863 3.707357
Si 4.451413 2.669919 5.329927
Si 8.522884 8.414682 5.287269
Si 9.056663 7.784083 0.344582
Si 2.757064 10.627394 6.690299
Si 10.697132 6.473493 9.431553
Si 7.576051 9.692942 0.932057
Si 0.676917 10.302294 4.579470
Si 1.939313 8.140066 8.181341
Si 2.890665 8.309475 10.085944
Si 5.617642 7.466687 9.287063
Si 0.672919 7.276016 4.533064
Si 8.490124 8.217394 2.921815
Si 7.729105 7.933552 8.271573
Si 4.180076 0.008854 1.310154
Si 0.729964 0.502833 2.620579
Si 7.324857 0.992491 4.217640
Si 3.720689 0.578708 9.385006
Si 9.848371 0.006121 7.736940
Si 9.283985 0.429419 2.066975
Si 7.585516 10.081600 7.085584
Si 6.068138 2.343893 9.811249
Si 1.969130 9.614684 1.569409
Si 5.199510 4.151537 1.222968
Si 2.495438 4.023849 8.233843
Si 10.135464 5.500803 3.944759
Si 9.236925 10.642522 4.763142
Si 7.818114 4.373610 6.163584
Si 1.483890 4.758299 5.376551
Si 1.433549 2.551889 4.023321
Si 7.678304 5.413380 3.694186
Si 5.699554 4.067299 3.409968
Si 0.823655 7.481070 0.880304
Si 7.170124 6.172279 1.149788
Si 4.003125 2.725405 10.287731
Si 9.761573 9.262194 9.542585
64
Step 1580
Si 10.307417 0.467931 10.667187
Si 7.979873 1.470689 8.939740
Si 4.943049 1.306519 3.306218
Si 3.743074 5.396506 4.125350
Si 10.739610 2.982664 7.677027
Si 8.565350 4.207306 8.319266
Si 7.910891 4.028646 0.327568
Si 4.489224 5.538214 7.665835
Si 1.219609 5.632726 7.506617
Si 2.548339 9.324616 4.819507
Si 9.861608 2.934083 10.551579
Si 9.825862 2.974189 5.211382
Si 5.687717 8.411239 0.476215
Si 1.842654 4.406759 0.101177
Si 4.011268 7.898813 2.004707
Si 6.909959 6.833797 5.969661
Si 3.758269 1.732415 7.271800
Si 6.772953 1.644714 1.426704
Si 6.980840 2.227565 6.354596
Si 10.506021 5.677459 1.662451
Si 3.156957 5.695790 1.698600
Si 5.392943 9.896587 5.883037
Si 4.801087 7.850126 7.016232
Si 8.745233 3.172327 3.084724
Si 1.641452 10.575439 9.414691
Si 6.210941 4.804172 9.044669
Si 0.097156 3.681983 1.576117
Si 10.719611 8.185085 6.601279
Si 5.220093 10.008333 3.725160
Si 4.386125 2.705134 5.282318
Si 8.566786 8.466932 5.284208
Si 9.041655 7.781543 0.447607
Si 2.884981 10.500865 6.733854
Si 10.591048 6.450092 9.414757
Si 7.516610 9.631313 0.866003
Si 0.682788 10.425583 4.542559
Si 2.005144 8.055226 8.039410
Si 2.961582 8.523497 10.184438
Si 5.614528 7.531246 9.304333
Si 0.654192 7.210359 4.686561
Si 8.426761 8.089912 2.881415
Si 7.665661 7.995340 8.270892
Si 4.270405 10.755274 1.236410
Si 0.701376 0.496967 2.577739
Si 7.338323 0.967665 4.199845
Si 3.686697 0.553298 9.409101
Si 9.889397 0.224108 7.768015
Si 9.412513 0.414869 1.955248
Si 7.413725 10.088150 6.965553
Si 6.172428 2.194809 9.896352
Si 1.992178 9.505771 1.658863
Si 5.244989 4.081997 1.177072
Si 2.532403 4.013071 8.271710
Si 10.088549 5.542818 4.011265
Si 9.367649 10.717211 4.719376
Si 7.682548 4.200436 6.188326
Si 1.480064 4.743739 5.297103
Si 1.509053 2.487385 4.053373
Si 7.676870 5.281100 3.716892
Si 5.662164 4.092640 3.342800
Si 0.916419 7.556888 0.931606
Si 7.019206 6.203143 1.219836
Si 4.008776 2.708006 10.238727
Si 9.655358 9.282921 9.519320
64
Step 1590
Si 10.276182 0.414205 10.664793
Si 7.959779 1.476657 8.915783
Si 4.990073 1.402301 3.256958
Si 3.792097 5.510324 4.181219
Si 10.764298 2.664042 7.625019
Si 8.762078 4.492147 8.307227
Si 8.021370 4.143959 0.347414
Si 4.481896 5.548953 7.651811
Si 1.244035 5.708552 7.491114
Si 2.524216 9.377707 4.759541
Si 9.880943 3.014253 10.479061
Si 9.888787 2.847655 5.202129
Si 5.684685 8.392777 0.661546
Si 1.830322 4.503550 0.133756
Si 3.948342 7.813111 2.079142
Si 6.806108 6.859529 6.002637
Si 3.762692 1.695755 7.318593
Si 6.897682 1.503028 1.428307
Si 6.875058 2.042304 6.289721
Si 10.380636 5.705497 1.703841
Si 3.197036 5.586348 1.646703
Si 5.275500 9.810275 5.994524
Si 4.751080 7.742272 7.108982
Si 8.636533 3.131080 3.006842
Si 1.420770 10.615560 9.326590
Si 6.142128 4.838792 9.076949
Si 0.224860 3.662589 1.578734
Si 10.705204 8.186780 6.501785
Si 5.260780 9.985977 3.707995
Si 4.283904 2.754037 5.198773
Si 8.614330 8.519818 5.241651
Si 9.054636 7.747206 0.458968
Si 3.014413 10.370563 6.781554
Si 10.466999 6.456811 9.411877
Si 7.426665 9.663501 0.841180
Si 0.719730 10.533169 4.512290
Si 2.108794 7.990791 7.854833
Si 2.998789 8.719587 10.249135
Si 5.671079 7.596098 9.322998
Si 0.693764 7.192021 4.855122
Si 8.335305 7.920569 2.944966
Si 7.659696 8.058912 8.299694
Si 4.340501 10.655497 1.079081
Si 0.705623 0.501406 2.514702
Si 7.436542 0.952985 4.214213
Si 3.706992 0.561085 9.510966
Si 9.969766 0.433094 7.741852
Si 9.484508 0.410725 1.862609
Si 7.289180 10.187646 6.870127
Si 6.302953 2.038198 9.980409
Si 2.032492 9.455633 1.794138
Si 5.223028 4.047405 1.079355
Si 2.582955 3.983685 8.340747
Si 10.014931 5.676403 4.052235
Si 9.443824 10.818811 4.751772
Si 7.556523 4.120787 6.190618
Si 1.525708 4.719029 5.242983
Si 1.576915 2.453513 4.088070
Si 7.650499 5.213120 3.755253
Si 5.627371 4.136043 3.379772
Si 1.044703 7.595867 0.948029
Si 6.884622 6.291546 1.291995
Si 3.935256 2.733975 10.166520
Si 9.539848 9.260483 9.444785
64
Step 1600
Si 10.267926 0.398071 10.601010
Si 7.988219 1.456246 8.806569
Si 5.033577 1.509457 3.222191
Si 3.823752 5.605473 4.225518
Si 10.793995 2.432342 7.616666
Si 8.965102 4.751967 8.335349
Si 8.056939 4.258600 0.339657
Si 4.437389 5.469970 7.586470
Si 1.234001 5.788496 7.463232
Si 2.532466 9.438236 4.651283
Si 9.911180 3.010285 10.330152
Si 9.974319 2.734308 5.179137
Si 5.687798 8.362697 0.852784
Si 1.805835 4.632189 0.114579
Si 3.903174 7.697235 2.233877
Si 6.734049 6.847977 6.026252
Si 3.748435 1.692684 7.341642
Si 7.009028 1.350799 1.422931
Si 6.749899 1.838662 6.217065
Si 10.208638 5.771678 1.759183
Si 3.215089 5.518552 1.587196
Si 5.136653 9.679265 6.114870
Si 4.680055 7.666192 7.175630
Si 8.551758 3.038826 2.879951
Si 1.188128 10.616724 9.193030
Si 6.138592 4.822092 9.204007
Si 0.386958 3.581409 1.646692
Si 10.617638 8.160886 6.462263
Si 5.252336 9.906932 3.664892
Si 4.141661 2.764008 5.141069
Si 8.688599 8.573409 5.198830
Si 9.119371 7.709526 0.414763
Si 3.118760 10.248902 6.847520
Si 10.385265 6.443601 9.458103
Si 7.366599 9.772981 0.867936
Si 0.721065 10.619012 4.549660
Si 2.229924 7.961246 7.706878
Si 3.014193 8.877413 10.201571
Si 5.695852 7.677039 9.384098
Si 0.786101 7.156718 4.980800
Si 8.255156 7.752171 3.065471
Si 7.731768 8.160900 8.318198
Si 4.417954 10.597866 0.917388
Si 0.740266 0.561696 2.432503
Si 7.547836 0.976088 4.243387
Si 3.765349 0.584185 9.629357
Si 10.036758 0.604368 7.686841
Si 9.540770 0.422690 1.816508
Si 7.244963 10.339977 6.853005
Si 6.386455 1.947955 10.107259
Si 2.076261 9.473364 1.987794
Si 5.222291 4.045212 0.941488
Si 2.605641 3.937953 8.409427
Si 9.904369 5.842818 4.060182
Si 9.494639 0.097842 4.804374
Si 7.456131 4.044223 6.174378
Si 1.617389 4.681503 5.199923
Si 1.627277 2.462247 4.108378
Si 7.604239 5.178613 3.819718
Si 5.589509 4.181822 3.448082
Si 1.136891 7.508739 0.911183
Si 6.739257 6.294556 1.342175
Si 3.859177 2.819645 10.085098
Si 9.407352 9.225461 9.354556
64
Step 1610
Si 10.227815 0.419184 10.526611
Si 8.070871 1.433891 8.636881
Si 5.080932 1.564453 3.179728
Si 3.843340 5.671762 4.233735
Si 0.007506 2.455362 7.592165
Si 9.141266 4.936246 8.367587
Si 8.086339 4.364218 0.332405
Si 4.408251 5.307392 7.572589
Si 1.189344 5.827279 7.541928
Si 2.537607 9.478890 4.498261
Si 9.965205 2.974600 10.162389
Si 10.041323 2.658347 5.172007
Si 5.678417 8.300960 1.019178
Si 1.712682 4.755165 0.081842
Si 3.875417 7.569516 2.436153
Si 6.710194 6.787665 6.041046
Si 3.750882 1.698808 7.266430
Si 7.073467 1.235612 1.397050
Si 6.576903 1.657744 6.185559
Si 10.024914 5.803029 1.787536
Si 3.220228 5.489229 1.533535
Si 5.093837 9.525481 6.234276
Si 4.627074 7.584584 7.259410
Si 8.551128 2.957353 2.715026
Si 1.021893 10.607900 9.000478
Si 6.147796 4.784866 9.324126
Si 0.525476 3.481098 1.736294
Si 10.494627 8.191125 6.475174
Si 5.202129 9.805492 3.606818
Si 3.962709 2.750170 5.133493
Si 8.719051 8.617693 5.159494
Si 9.189452 7.703816 0.396908
Si 3.144025 10.209827 6.941893
Si 10.364671 6.454547 9.466237
Si 7.375429 9.882341 0.951906
Si 0.742443 10.672928 4.659774
Si 2.380986 7.937294 7.624904
Si 3.011514 8.961280 10.105088
Si 5.661389 7.762063 9.428214
Si 0.931382 7.116736 4.983825
Si 8.164580 7.655730 3.154200
Si 7.795668 8.284722 8.292307
Si 4.510499 10.604185 0.830820
Si 0.846546 0.676386 2.346013
Si 7.596825 1.011717 4.233978
Si 3.813986 0.607710 9.724948
Si 10.004750 0.567442 7.564251
Si 9.592991 0.416174 1.778304
Si 7.214949 10.428578 6.911935
Si 6.441571 1.940775 10.256337
Si 2.128708 9.507833 2.164425
Si 5.254290 4.075279 0.808839
Si 2.608887 3.939175 8.481970
Si 9.836309 5.991515 4.111948
Si 9.480011 0.243128 4.945753
Si 7.422373 4.005760 6.210862
Si 1.702339 4.635183 5.112478
Si 1.655933 2.512663 4.099969
Si 7.567894 5.140471 3.921603
Si 5.519108 4.227366 3.498882
Si 1.173701 7.347278 0.816380
Si 6.664936 6.254538 1.373972
Si 3.789258 2.947266 10.024921
Si 9.289989 9.167179 9.288934
64
Step 1620
Si 10.187008 0.480948 10.489112
Si 8.157442 1.433945 8.486159
Si 5.144246 1.556480 3.096762
Si 3.846072 5.722892 4.227450
Si 0.103018 2.663903 7.586843
Si 9.239627 5.002959 8.320150
Si 8.193421 4.473968 0.336447
Si 4.407296 5.107364 7.599373
Si 1.115469 5.898789 7.642057
Si 2.558393 9.438001 4.351574
Si 10.073538 2.966589 9.990490
Si 10.065543 2.692871 5.175210
Si 5.624531 8.223477 1.149468
Si 1.527882 4.841801 0.010030
Si 3.834529 7.459190 2.654273
Si 6.722610 6.682351 6.064158
Si 3.784305 1.669307 7.155548
Si 7.070441 1.187773 1.376492
Si 6.375033 1.571624 6.149620
Si 9.889785 5.760296 1.780355
Si 3.283243 5.460859 1.485933
Si 5.084866 9.433073 6.312492
Si 4.618037 7.411882 7.387322
Si 8.627473 2.935104 2.530137
Si 0.961291 10.610957 8.788995
Si 6.191765 4.806815 9.385613
Si 0.585055 3.383624 1.827509
Si 10.458629 8.213179 6.558533
Si 5.121172 9.726987 3.595809
Si 3.821886 2.719801 5.170428
Si 8.706592 8.666916 5.176764
Si 9.211957 7.725675 0.412999
Si 3.122549 10.266524 7.058921
Si 10.415567 6.493907 9.457547
Si 7.442409 9.877936 1.028472
Si 0.784787 10.764998 4.776407
Si 2.442829 7.928310 7.541249
Si 2.983849 8.977841 10.003808
Si 5.633470 7.805504 9.489462
Si 1.067519 7.107719 4.962086
Si 8.015298 7.652533 3.172990
Si 7.641921 8.307205 8.128675
Si 4.611009 10.655660 0.864499
Si 0.948781 0.814522 2.290555
Si 7.574631 1.066159 4.164951
Si 3.819070 0.666222 9.736503
Si 9.926553 0.391071 7.420344
Si 9.687445 0.386704 1.764994
Si 7.152763 10.378949 7.020009
Si 6.468198 1.990503 10.355886
Si 2.225095 9.504030 2.256475
Si 5.239539 4.105531 0.740621
Si 2.596095 3.980374 8.496088
Si 9.843316 6.099883 4.188318
Si 9.441093 0.345985 5.113574
Si 7.502073 3.960969 6.309960
Si 1.796587 4.623843 5.024926
Si 1.618649 2.559006 4.086294
Si 7.527130 5.055343 4.035373
Si 5.420558 4.261609 3.519148
Si 1.196659 7.226870 0.687330
Si 6.640891 6.190486 1.394616
Si 3.721558 3.040657 10.006962
Si 9.345969 9.167745 9.350836
64
Step 1630
Si 10.171198 0.574262 10.491425
Si 8.211436 1.482150 8.399778
Si 5.195490 1.547652 3.026278
Si 3.807356 5.780651 4.315839
Si 0.230129 2.934306 7.598032
Si 9.207824 4.970024 8.241588
Si 8.365572 4.513415 0.308482
Si 4.414403 4.892749 7.634369
Si 1.059032 6.011507 7.674908
Si 2.600291 9.374804 4.314718
Si 10.188906 2.997504 9.872663
Si 10.024808 2.846499 5.113664
Si 5.545371 8.168253 1.272322
Si 1.297953 4.875204 10.793356
Si 3.828595 7.345054 2.813365
Si 6.807870 6.596944 6.099807
Si 3.824845 1.619854 7.097354
Si 7.063801 1.205821 1.434369
Si 6.252496 1.553212 6.103094
Si 9.789817 5.682460 1.781371
Si 3.379669 5.409635 1.405178
Si 5.113643 9.385098 6.300063
Si 4.643278 7.166895 7.523666
Si 8.770481 2.950526 2.397557
Si 0.956693 10.605212 8.575847
Si 6.280859 4.906790 9.372858
Si 0.559917 3.295976 1.871879
Si 10.517207 8.264566 6.704002
Si 5.047016 9.691789 3.620921
Si 3.726164 2.685043 5.154288
Si 8.613427 8.701792 5.223062
Si 9.202281 7.793932 0.479359
Si 3.042552 10.364936 7.187162
Si 10.512952 6.521749 9.445791
Si 7.512290 9.705759 1.119249
Si 0.869852 10.859451 4.882596
Si 2.351295 7.923104 7.470440
Si 2.948115 8.938386 9.914457
Si 5.607777 7.811173 9.544509
Si 1.192150 7.106392 4.977754
Si 7.839588 7.732245 3.127178
Si 7.465534 8.303438 7.958697
Si 4.688762 10.674442 0.955081
Si 1.031684 0.900469 2.199075
Si 7.592889 1.139147 4.111719
Si 3.817544 0.718211 9.703789
Si 9.885425 0.167817 7.286264
Si 9.816698 0.354478 1.758933
Si 7.022653 10.226454 7.134276
Si 6.469784 2.072975 10.321893
Si 2.296600 9.503863 2.205308
Si 5.166047 4.119605 0.773939
Si 2.492244 4.035429 8.404792
Si 9.925972 6.168927 4.259479
Si 9.284264 0.414287 5.244032
Si 7.683286 3.902672 6.447200
Si 1.867191 4.714162 4.969305
Si 1.519520 2.564296 4.093147
Si 7.473012 4.945724 4.130073
Si 5.347544 4.267646 3.496098
Si 1.225670 7.237079 0.536084
Si 6.663905 6.114777 1.444652
Si 3.696291 3.066059 10.048711
Si 9.439099 9.179266 9.416839
64
Step 1640
Si 10.123361 0.676611 10.462730
Si 8.232252 1.580926 8.356746
Si 5.200172 1.539715 3.069626
Si 3.790739 5.794844 4.498315
Si 0.350524 3.191719 7.585979
Si 9.080705 4.902836 8.174754
Si 8.527267 4.487389 0.202989
Si 4.457194 4.669815 7.673970
Si 1.019239 6.074439 7.637261
Si 2.578162 9.336783 4.432570
Si 10.283703 3.006995 9.802163
Si 9.951404 3.047943 5.048557
Si 5.428848 8.099144 1.330555
Si 1.098318 4.801234 10.727382
Si 3.857355 7.197191 2.861946
Si 6.910780 6.537951 6.129697
Si 3.871266 1.610737 7.096325
Si 7.078559 1.219948 1.448552
Si 6.171134 1.567021 6.067799
Si 9.728795 5.636346 1.807980
Si 3.436784 5.387347 1.277580
Si 5.074044 9.341873 6.217982
Si 4.653047 6.939989 7.600244
Si 8.939680 2.983189 2.333439
Si 0.991909 10.582302 8.399793
Si 6.412075 5.005383 9.347170
Si 0.490232 3.254578 1.842895
Si 10.527435 8.385666 6.863392
Si 5.028730 9.735703 3.714739
Si 3.689421 2.628868 5.034991
Si 8.527095 8.696259 5.269259
Si 9.188449 7.901323 0.578574
Si 2.949825 10.457151 7.251025
Si 10.604673 6.531917 9.404337
Si 7.638365 9.514174 1.215504
Si 0.989447 0.091341 4.992172
Si 2.307562 7.926132 7.429874
Si 2.918981 8.914428 9.889008
Si 5.549409 7.813649 9.602659
Si 1.304606 7.127227 4.972483
Si 7.700469 7.796020 3.106782
Si 7.360906 8.242701 7.890283
Si 4.710361 10.659938 1.025237
Si 1.107807 0.905033 2.097327
Si 7.554371 1.232493 4.083138
Si 3.849730 0.786239 9.679441
Si 9.924595 10.839452 7.214113
Si 9.966734 0.307961 1.740699
Si 6.885048 10.103089 7.232650
Si 6.464925 2.158812 10.211035
Si 2.346651 9.535130 1.975071
Si 5.071108 4.136855 0.792490
Si 2.364676 4.039231 8.311707
Si 9.979021 6.247096 4.328472
Si 9.138580 0.463437 5.276790
Si 7.905738 3.791509 6.624422
Si 1.914564 4.835218 4.937515
Si 1.391703 2.548692 4.158475
Si 7.446231 4.857672 4.172812
Si 5.270765 4.272025 3.491505
Si 1.282566 7.348729 0.431122
Si 6.703340 6.023855 1.535468
Si 3.667374 3.070235 10.115222
Si 9.477204 9.184484 9.499190
64
Step 1650
Si 10.074121 0.758721 10.365872
Si 8.211838 1.694120 8.319091
Si 5.151563 1.562109 3.168736
Si 3.921802 5.776069 4.661616
Si 0.453583 3.395705 7.543693
Si 8.906955 4.883188 8.157859
Si 8.631878 4.424732 0.001583
Si 4.538666 4.398167 7.740179
Si 0.985852 6.079347 7.564753
Si 2.506650 9.293769 4.591848
Si 10.367810 2.975186 9.758083
Si 9.844412 3.259650 4.986517
Si 5.270155 8.036321 1.338004
Si 0.964269 4.637685 10.696430
Si 3.900602 7.094939 2.836808
Si 7.021682 6.493129 6.134700
Si 3.920631 1.624924 7.143465
Si 7.147671 1.193716 1.391796
Si 6.153694 1.584710 6.068815
Si 9.683867 5.732215 1.848764
Si 3.351065 5.506214 1.164922
Si 4.945140 9.296120 6.109920
Si 4.631437 6.772125 7.632783
Si 9.078794 2.988060 2.340562
Si 1.067884 10.559529 8.359047
Si 6.568173 5.087345 9.368773
Si 0.420582 3.208394 1.810948
Si 10.455373 8.505337 7.014528
Si 5.048648 9.773725 3.823751
Si 3.648630 2.548465 4.868041
Si 8.482955 8.661891 5.226201
Si 9.206551 7.970191 0.695063
Si 2.896474 10.532238 7.209982
Si 10.642458 6.554088 9.363091
Si 7.773453 9.387816 1.314539
Si 1.109511 0.200841 5.105101
Si 2.380219 7.969898 7.415023
Si 2.904304 8.933640 9.892355
Si 5.487185 7.792092 9.663970
Si 1.324592 7.202203 4.920833
Si 7.635362 7.816122 3.178687
Si 7.282137 8.171006 7.940083
Si 4.703815 10.589944 1.054758
Si 1.218404 0.884876 2.043744
Si 7.425390 1.341095 4.051308
Si 3.911477 0.842993 9.691482
Si 9.971014 10.734304 7.161550
Si 10.040918 0.290890 1.705176
Si 6.780822 10.055870 7.315975
Si 6.459079 2.278815 10.085503
Si 2.431017 9.550940 1.687993
Si 5.065680 4.098777 0.757935
Si 2.260494 3.998962 8.237278
Si 9.917995 6.330682 4.377098
Si 9.044436 0.493791 5.249473
Si 8.107644 3.614918 6.764455
Si 1.905924 4.937590 4.978128
Si 1.262638 2.484817 4.239706
Si 7.519975 4.779569 4.179381
Si 5.180208 4.282881 3.532034
Si 1.367573 7.514978 0.373988
Si 6.764758 5.899233 1.586474
Si 3.611280 3.063057 10.157445
Si 9.496845 9.179273 9.616284
64
Step 1660
Si 10.035390 0.768305 10.200066
Si 8.159740 1.731611 8.283161
Si 5.066295 1.569094 3.255217
Si 4.116892 5.756691 4.834264
Si 0.336694 3.430991 7.374622
Si 8.714229 5.025863 8.184310
Si 8.679161 4.349912 10.663758
Si 4.640157 4.118739 7.810481
Si 1.014896 6.130489 7.460122
Si 2.419160 9.209115 4.666194
Si 10.470504 2.897433 9.697780
Si 9.747830 3.467655 4.897460
Si 5.147759 7.994835 1.347633
Si 0.867176 4.483468 10.722011
Si 3.936791 7.056377 2.803730
Si 7.147910 6.405687 6.140406
Si 4.002995 1.655390 7.191968
Si 7.288864 1.136942 1.289501
Si 6.149752 1.589858 6.128412
Si 9.662420 5.867317 1.896446
Si 3.199463 5.703228 1.073324
Si 4.794435 9.247695 6.073802
Si 4.631696 6.630461 7.595336
Si 9.129180 2.947499 2.400048
Si 1.112642 10.602936 8.529452
Si 6.680322 5.180603 9.418729
Si 0.426382 3.161158 1.823474
Si 10.331326 8.535326 7.056063
Si 5.046266 9.762384 3.853178
Si 3.565126 2.473277 4.714355
Si 8.470600 8.620376 5.185783
Si 9.351931 7.955283 0.753203
Si 2.945105 10.616648 7.103698
Si 10.628914 6.587609 9.399836
Si 7.831857 9.379990 1.474092
Si 1.179311 0.335275 5.178021
Si 2.515079 8.012269 7.406138
Si 2.926021 9.008687 9.853898
Si 5.429532 7.738389 9.698146
Si 1.249574 7.300070 4.835097
Si 7.559003 7.803901 3.281944
Si 7.202876 8.119267 8.066296
Si 4.704299 10.514910 1.093473
Si 1.276105 0.837777 2.002009
Si 7.381448 1.459808 4.080854
Si 3.995119 0.845557 9.710499
Si 9.900545 10.754917 7.088316
Si 10.080590 0.304345 1.654782
Si 6.754927 10.065813 7.381020
Si 6.456108 2.429008 9.976744
Si 2.532987 9.543645 1.464767
Si 5.094039 4.050568 0.733821
Si 2.401885 3.985875 8.255537
Si 9.822501 6.374708 4.436033
Si 8.961598 0.534740 5.166408
Si 8.232959 3.362663 6.811848
Si 1.873023 5.039421 5.016699
Si 1.186445 2.414576 4.340753
Si 7.632143 4.728071 4.167211
Si 5.102453 4.276441 3.565719
Si 1.413535 7.623443 0.310802
Si 6.843356 5.765592 1.642809
Si 3.498696 3.093821 10.207938
Si 9.489994 9.210196 9.716486
64
Step 1670
Si 9.996250 0.723090 10.069346
Si 8.085019 1.661569 8.294075
Si 5.020106 1.479443 3.281243
Si 4.311111 5.747854 5.031377
Si 0.146383 3.462440 7.174621
Si 8.569720 5.240227 8.167804
Si 8.771794 4.249066 10.578844
Si 4.830010 3.870481 7.860222
Si 1.052000 6.182131 7.371636
Si 2.345390 9.112125 4.621531
Si 10.567087 2.815021 9.594065
Si 9.707878 3.635964 4.833175
Si 5.186880 7.984076 1.295301
Si 0.829843 4.412000 10.782846
Si 3.894565 7.027416 2.836577
Si 7.263708 6.294622 6.159053
Si 4.127829 1.723609 7.223334
Si 7.415837 1.057088 1.177548
Si 6.121612 1.570828 6.210492
Si 9.642583 5.947609 1.934019
Si 3.011449 5.883754 0.968959
Si 4.714110 9.156880 6.116931
Si 4.691015 6.499048 7.464200
Si 9.089868 2.908417 2.407647
Si 1.096424 10.633410 8.759070
Si 6.676938 5.306008 9.469492
Si 0.496203 3.120452 1.810851
Si 10.244558 8.498131 7.064653
Si 5.059168 9.716576 3.805320
Si 3.415433 2.458389 4.612427
Si 8.480066 8.625987 5.223615
Si 9.540096 7.895343 0.808836
Si 2.993485 10.740139 6.995356
Si 10.600175 6.574648 9.462947
Si 7.824489 9.414491 1.663774
Si 1.187674 0.473904 5.245829
Si 2.615318 8.039329 7.423126
Si 3.005030 9.101576 9.736491
Si 5.354291 7.674474 9.749661
Si 1.113362 7.358983 4.728954
Si 7.401506 7.774314 3.338263
Si 7.144054 8.090167 8.245904
Si 4.746804 10.509794 1.148093
Si 1.295935 0.783360 1.973615
Si 7.321156 1.605079 4.076828
Si 4.124127 0.859569 9.751096
Si 9.783194 10.847400 7.065453
Si 10.117614 0.365291 1.560862
Si 6.773553 10.099786 7.403698
Si 6.457359 2.572564 9.890722
Si 2.637429 9.568960 1.364487
Si 5.116890 4.044819 0.703336
Si 2.529181 4.004422 8.309958
Si 9.766451 6.400022 4.488005
Si 8.962992 0.530129 5.047603
Si 8.335649 3.138449 6.789023
Si 1.843576 5.104876 5.064147
Si 1.158476 2.377704 4.465575
Si 7.695007 4.696278 4.156016
Si 5.042768 4.277996 3.600183
Si 1.360888 7.610254 0.234123
Si 6.934166 5.651379 1.684704
Si 3.339949 3.138378 10.339413
Si 9.462531 9.256412 9.729625
64
Step 1680
Si 9.950756 0.668353 9.998178
Si 8.011214 1.489447 8.426543
Si 5.049283 1.315362 3.286699
Si 4.499780 5.713794 5.194024
Si 10.859160 3.529110 6.989448
Si 8.453631 5.462134 8.082143
Si 8.875793 4.134415 10.607943
Si 5.066116 3.677548 7.915845
Si 1.106982 6.216087 7.326374
Si 2.316063 9.014112 4.510639
Si 10.656476 2.712433 9.458343
Si 9.764672 3.759670 4.732894
Si 5.351774 7.979373 1.242379
Si 0.814647 4.434330 0.011315
Si 3.797954 7.014664 2.892433
Si 7.347194 6.203272 6.196350
Si 4.226319 1.792144 7.249338
Si 7.478029 0.999211 1.062759
Si 6.158860 1.520094 6.213651
Si 9.604684 5.939718 1.941430
Si 2.828497 6.030039 0.871979
Si 4.698299 9.058370 6.149805
Si 4.793264 6.378383 7.295174
Si 9.027651 2.890563 2.344080
Si 1.094141 10.626201 8.979666
Si 6.607081 5.452188 9.520550
Si 0.577106 3.061248 1.813651
Si 10.192305 8.448388 7.070815
Si 5.086560 9.620612 3.756260
Si 3.271750 2.547205 4.546876
Si 8.465301 8.673908 5.308735
Si 9.727718 7.903710 0.862254
Si 2.957737 0.007706 6.902807
Si 10.551939 6.531999 9.507190
Si 7.824051 9.441938 1.847689
Si 1.141757 0.499009 5.339554
Si 2.649484 8.043165 7.448953
Si 3.091157 9.187172 9.566626
Si 5.281197 7.615920 9.826149
Si 0.932358 7.405968 4.636194
Si 7.184377 7.758375 3.350274
Si 7.162270 8.069864 8.453815
Si 4.849435 10.575818 1.195263
Si 1.309388 0.764342 1.975138
Si 7.272587 1.760436 4.045550
Si 4.262883 0.893444 9.782560
Si 9.677980 0.069571 7.108465
Si 10.103106 0.374462 1.459936
Si 6.836671 10.147004 7.351812
Si 6.485378 2.677974 9.828903
Si 2.695885 9.614657 1.325427
Si 5.116842 4.087747 0.715457
Si 2.543882 4.057574 8.373510
Si 9.768453 6.464422 4.517041
Si 8.945852 0.532627 4.894218
Si 8.419992 2.977466 6.708566
Si 1.842436 5.114617 5.163009
Si 1.103892 2.424869 4.562735
Si 7.662623 4.682882 4.135900
Si 5.000312 4.299408 3.613685
Si 1.275529 7.546458 0.171366
Si 7.013211 5.525695 1.731417
Si 3.165195 3.217292 10.514464
Si 9.421096 9.224037 9.671739
64
Step 1690
Si 9.921033 0.599602 10.015238
Si 7.911431 1.347424 8.618102
Si 5.100590 1.175460 3.312138
Si 4.661449 5.658347 5.262520
Si 10.795211 3.670791 6.915333
Si 8.386195 5.643042 7.994208
Si 8.929762 4.061568 10.683241
Si 5.290774 3.592477 8.013785
Si 1.167212 6.236288 7.342350
Si 2.362502 8.943464 4.336365
Si 10.774875 2.634776 9.274782
Si 9.843033 3.884682 4.579219
Si 5.535169 7.963283 1.203441
Si 0.811689 4.493399 0.106943
Si 3.692908 7.067951 2.954629
Si 7.372217 6.153884 6.214962
Si 4.171130 1.835761 7.277668
Si 7.480710 0.965189 0.958345
Si 6.270785 1.401807 6.105049
Si 9.564749 5.877209 1.926985
Si 2.706472 6.117207 0.789097
Si 4.744783 8.975437 6.183895
Si 4.933039 6.316396 7.195267
Si 8.990490 2.904196 2.232524
Si 1.135628 10.636427 9.157073
Si 6.534303 5.568860 9.565025
Si 0.693344 2.952813 1.827083
Si 10.154164 8.359645 7.081633
Si 5.100656 9.436031 3.747881
Si 3.213354 2.677155 4.494779
Si 8.411506 8.727274 5.424631
Si 9.870279 7.989731 0.948350
Si 2.871456 0.152771 6.829078
Si 10.472730 6.442106 9.448850
Si 7.864698 9.465053 2.000456
Si 1.066668 0.403375 5.465596
Si 2.634561 8.018926 7.468665
Si 3.206589 9.278426 9.409325
Si 5.162194 7.576252 9.903465
Si 0.771470 7.438871 4.576287
Si 6.956725 7.740825 3.405314
Si 7.255128 8.092102 8.633773
Si 4.999011 10.666494 1.204245
Si 1.290818 0.753022 1.961293
Si 7.197842 1.938837 3.972927
Si 4.385448 0.939806 9.817603
Si 9.631468 0.132495 7.106572
Si 10.087055 0.341487 1.395263
Si 6.882043 10.168649 7.212925
Si 6.530850 2.753530 9.816285
Si 2.698100 9.615699 1.322417
Si 5.078001 4.165165 0.774146
Si 2.507665 4.067511 8.419078
Si 9.753229 6.563959 4.496295
Si 8.928223 0.526147 4.766594
Si 8.474039 2.808479 6.634258
Si 1.858942 5.087867 5.249970
Si 1.023668 2.528355 4.628153
Si 7.545686 4.679538 4.139114
Si 4.964434 4.320055 3.577440
Si 1.225127 7.550607 0.149494
Si 7.085893 5.405142 1.773810
Si 3.026337 3.281337 10.698338
Si 9.340477 9.089535 9.584415
64
Step 1700
Si 9.910230 0.525526 10.069910
Si 7.783395 1.234631 8.826942
Si 5.136389 1.052437 3.363885
Si 4.727848 5.620254 5.180368
Si 10.776659 3.848522 6.947891
Si 8.433660 5.759317 7.949679
Si 8.949159 4.003575 10.746083
Si 5.485228 3.585530 8.084010
Si 1.206705 6.247010 7.390998
Si 2.437467 8.896135 4.141570
Si 0.052670 2.606557 9.055423
Si 9.931320 4.036388 4.369462
Si 5.699406 7.911320 1.159554
Si 0.745302 4.539910 0.214810
Si 3.582489 7.141332 2.993979
Si 7.428117 6.122151 6.161260
Si 4.053195 1.884848 7.269504
Si 7.431293 0.936732 0.849229
Si 6.350443 1.266632 6.019521
Si 9.568946 5.823728 1.932140
Si 2.667642 6.160345 0.728548
Si 4.755535 8.928452 6.209813
Si 5.074656 6.350487 7.334983
Si 8.992180 2.929384 2.087884
Si 1.243941 10.655941 9.239531
Si 6.461803 5.623442 9.640486
Si 0.812749 2.875528 1.856568
Si 10.176702 8.229461 7.106541
Si 5.116486 9.275181 3.806559
Si 3.183971 2.729076 4.460454
Si 8.307074 8.780641 5.543061
Si 9.955780 8.132807 1.091273
Si 2.795187 0.235468 6.857148
Si 10.387252 6.304681 9.295728
Si 7.962682 9.492940 2.111099
Si 0.958826 0.273198 5.556290
Si 2.612189 8.013952 7.416632
Si 3.311359 9.393609 9.319807
Si 4.994767 7.546111 9.950736
Si 0.699709 7.454583 4.611429
Si 6.762770 7.708210 3.515503
Si 7.362302 8.183508 8.775230
Si 5.161940 10.751474 1.164873
Si 1.255223 0.698750 1.922648
Si 7.108735 2.109495 3.859787
Si 4.471049 0.995836 9.838206
Si 9.683656 0.160386 7.099005
Si 10.090410 0.256016 1.400640
Si 6.851904 10.139192 7.060271
Si 6.576814 2.784958 9.885032
Si 2.659832 9.558703 1.329078
Si 5.004557 4.254081 0.823214
Si 2.466303 4.031595 8.451883
Si 9.638617 6.623276 4.424229
Si 8.941388 0.536005 4.600480
Si 8.506248 2.660126 6.583245
Si 1.880897 5.151565 5.305614
Si 0.995229 2.608358 4.677936
Si 7.425049 4.657293 4.214428
Si 4.890844 4.295968 3.487259
Si 1.232332 7.682644 0.152129
Si 7.123028 5.339446 1.740462
Si 2.931601 3.308036 10.853559
Si 9.264875 8.937250 9.468486
64
Step 1710
Si 9.958190 0.430397 10.122859
Si 7.641186 1.115309 8.975319
Si 5.104682 0.909112 3.428523
Si 4.678709 5.674414 5.045846
Si 10.726481 4.012978 7.026841
Si 8.503707 5.848513 7.901787
Si 8.935519 3.964132 10.744337
Si 5.640248 3.634218 8.065412
Si 1.254993 6.229314 7.454228
Si 2.464297 8.896876 3.960482
Si 0.216410 2.615234 8.873696
Si 10.035281 4.193863 4.147590
Si 5.848164 7.884041 1.167880
Si 0.614773 4.591955 0.292790
Si 3.523447 7.140735 2.972340
Si 7.476841 6.088154 6.120603
Si 3.974629 2.008577 7.272435
Si 7.370384 0.916727 0.778630
Si 6.409143 1.171408 6.002163
Si 9.618808 5.821138 1.918435
Si 2.718199 6.233562 0.690510
Si 4.716318 8.882557 6.230825
Si 5.179041 6.437165 7.528780
Si 9.025215 2.870322 1.951614
Si 1.391413 10.674296 9.262354
Si 6.427615 5.635904 9.742535
Si 0.937728 2.860849 1.931192
Si 10.235984 8.106772 7.101051
Si 5.151882 9.193587 3.890195
Si 3.159371 2.726146 4.442941
Si 8.210501 8.883718 5.610186
Si 10.019307 8.286482 1.208537
Si 2.736824 0.202471 6.957670
Si 10.327568 6.133904 9.202129
Si 8.053455 9.528293 2.220397
Si 0.800385 0.153645 5.591434
Si 2.657486 8.078061 7.399653
Si 3.382878 9.508559 9.235631
Si 4.774234 7.522841 9.980585
Si 0.684391 7.467528 4.713221
Si 6.616798 7.639542 3.636185
Si 7.316722 8.307364 8.897863
Si 5.310257 10.785967 1.149050
Si 1.239352 0.579365 1.841247
Si 7.029826 2.280714 3.680129
Si 4.504168 1.048709 9.815228
Si 9.771914 0.147275 7.094971
Si 10.063892 0.102779 1.436746
Si 6.840584 10.070729 6.926068
Si 6.624092 2.785342 10.062481
Si 2.633839 9.495990 1.353457
Si 4.891041 4.331519 0.841809
Si 2.462133 3.940572 8.492362
Si 9.448011 6.668247 4.320134
Si 8.935008 0.521533 4.439989
Si 8.520917 2.518730 6.530462
Si 1.931401 5.295267 5.309521
Si 1.019158 2.645787 4.719832
Si 7.339602 4.594082 4.317626
Si 4.770235 4.217760 3.357214
Si 1.265224 7.873453 0.147311
Si 7.115762 5.368470 1.691034
Si 2.899017 3.288886 0.105370
Si 9.311374 8.818159 9.392263
64
Step 1720
Si 9.990406 0.324135 10.073294
Si 7.535940 0.963668 8.961276
Si 5.064505 0.759733 3.485567
Si 4.598415 5.789104 4.913875
Si 10.614686 4.155080 7.062978
Si 8.589271 5.942196 7.855855
Si 8.907083 3.941985 10.687842
Si 5.781150 3.662178 8.027460
Si 1.370555 6.195889 7.521103
Si 2.385263 8.937632 3.837037
Si 0.395817 2.607640 8.777866
Si 10.161839 4.296866 3.955215
Si 6.000971 7.918552 1.214244
Si 0.479902 4.666788 0.302984
Si 3.530769 7.057898 2.886006
Si 7.463451 6.111459 6.060731
Si 3.921467 2.171424 7.261462
Si 7.332536 0.892036 0.821867
Si 6.451795 1.104459 6.008784
Si 9.706865 5.893527 1.872573
Si 2.807571 6.242642 0.643233
Si 4.641993 8.893670 6.273799
Si 5.246814 6.561000 7.672870
Si 9.052531 2.769220 1.819017
Si 1.458971 10.770373 9.264583
Si 6.449157 5.649214 9.851684
Si 1.077568 2.839218 2.057919
Si 10.246793 8.024314 7.064971
Si 5.189799 9.199592 4.021834
Si 3.170638 2.712295 4.449381
Si 8.171812 8.965058 5.681154
Si 10.106049 8.378026 1.276856
Si 2.688272 0.116891 7.030120
Si 10.281054 5.943091 9.223605
Si 8.067773 9.557185 2.361305
Si 0.660355 0.060278 5.590520
Si 2.776622 8.149028 7.411495
Si 3.473915 9.599316 9.190364
Si 4.514618 7.525707 10.028153
Si 0.731869 7.508909 4.776216
Si 6.526168 7.470554 3.764554
Si 7.123830 8.393469 8.935794
Si 5.392231 10.741410 1.167915
Si 1.257656 0.460864 1.750202
Si 6.967276 2.426956 3.459279
Si 4.479471 1.107941 9.759042
Si 9.794064 0.107250 7.146478
Si 10.044507 10.815536 1.494840
Si 6.823489 9.983734 6.890363
Si 6.613438 2.830521 10.272466
Si 2.616133 9.475237 1.369032
Si 4.769274 4.385720 0.830438
Si 2.486832 3.832511 8.537297
Si 9.248338 6.784263 4.251310
Si 8.884678 0.470292 4.315953
Si 8.583193 2.370473 6.472366
Si 1.997638 5.412390 5.295541
Si 1.050731 2.670948 4.766266
Si 7.284310 4.458548 4.411651
Si 4.620677 4.075030 3.214763
Si 1.267507 8.107327 0.146420
Si 7.106756 5.433865 1.655930
Si 2.901302 3.267663 0.169969
Si 9.509658 8.782220 9.367016
64
Step 1730
Si 10.007680 0.236849 9.948169
Si 7.477475 0.808288 8.808769
Si 5.037867 0.640773 3.564835
Si 4.510577 5.922403 4.808756
Si 10.490004 4.210668 7.002783
Si 8.632687 6.028212 7.889567
Si 8.820867 3.930426 10.596468
Si 5.898423 3.656320 7.974587
Si 1.554870 6.141535 7.597949
Si 2.262605 8.970418 3.775300
Si 0.569148 2.587602 8.721506
Si 10.270209 4.378201 3.770684
Si 6.133552 7.993417 1.246760
Si 0.382398 4.740608 0.315972
Si 3.592689 7.004512 2.728999
Si 7.422435 6.193359 5.971217
Si 3.900850 2.340251 7.216298
Si 7.332014 0.851275 0.939717
Si 6.486203 1.068075 5.985230
Si 9.764182 5.992725 1.811885
Si 2.900299 6.215529 0.590286
Si 4.581748 8.937568 6.283414
Si 5.282937 6.676750 7.761617
Si 9.091741 2.647647 1.726622
Si 1.457999 0.091094 9.315649
Si 6.525499 5.660076 9.942765
Si 1.222707 2.794236 2.179945
Si 10.238432 7.989756 6.941177
Si 5.188388 9.254212 4.143951
Si 3.209231 2.666498 4.488328
Si 8.247837 8.955402 5.734034
Si 10.229801 8.386855 1.304381
Si 2.601494 0.071988 6.939176
Si 10.279662 5.781191 9.330066
Si 7.963626 9.562340 2.546346
Si 0.592283 10.837832 5.562239
Si 2.872953 8.151139 7.437754
Si 3.595685 9.662097 9.256798
Si 4.265454 7.565594 10.097792
Si 0.767961 7.578212 4.826526
Si 6.460044 7.275441 3.868515
Si 6.932491 8.451746 8.919022
Si 5.385986 10.624413 1.206170
Si 1.339786 0.413784 1.684168
Si 6.944663 2.491690 3.219330
Si 4.492661 1.195101 9.739029
Si 9.751357 0.076735 7.232398
Si 10.046778 10.725385 1.560213
Si 6.680643 9.918855 7.015929
Si 6.532986 2.903527 10.485054
Si 2.618024 9.504199 1.369923
Si 4.689622 4.429968 0.828346
Si 2.526487 3.709261 8.565906
Si 9.105039 6.928008 4.210497
Si 8.801180 0.467665 4.197929
Si 8.625857 2.212932 6.424082
Si 2.024582 5.485508 5.278622
Si 1.064909 2.700396 4.868528
Si 7.262844 4.336023 4.499300
Si 4.497364 3.906855 3.060051
Si 1.250749 8.340178 0.153924
Si 7.140590 5.479205 1.658566
Si 2.903279 3.257351 0.244696
Si 9.705622 8.705835 9.347468
64
Step 1740
Si 9.996953 0.144766 9.804111
Si 7.371384 0.704252 8.707531
Si 5.040821 0.616843 3.653828
Si 4.438924 6.001291 4.734268
Si 10.374375 4.185569 6.852067
Si 8.666179 6.173666 7.935164
Si 8.690852 3.888793 10.529554
Si 6.014467 3.675118 7.940003
Si 1.725587 6.040095 7.687234
Si 2.182927 9.016116 3.744065
Si 0.655357 2.522930 8.636248
Si 10.328468 4.409156 3.648958
Si 6.207505 8.082464 1.239240
Si 0.401964 4.800360 0.378502
Si 3.670051 7.009360 2.518955
Si 7.347934 6.246100 6.003528
Si 3.915364 2.466001 7.157950
Si 7.347900 0.804536 1.024232
Si 6.484936 1.096315 5.867241
Si 9.771532 6.093435 1.741788
Si 2.934882 6.220914 0.540052
Si 4.550696 8.968959 6.288541
Si 5.320636 6.737841 7.789578
Si 9.234194 2.556399 1.695241
Si 1.484515 0.300637 9.400343
Si 6.621125 5.704915 9.992854
Si 1.312882 2.746204 2.260510
Si 10.247913 7.951945 6.817425
Si 5.121664 9.306908 4.212341
Si 3.197134 2.615727 4.608963
Si 8.347188 8.979782 5.762224
Si 10.369281 8.393221 1.316449
Si 2.501266 0.092868 6.805664
Si 10.296947 5.673145 9.391246
Si 7.788094 9.504579 2.801324
Si 0.561566 10.791645 5.512106
Si 2.935517 8.096279 7.461028
Si 3.738930 9.742533 9.410710
Si 4.086351 7.624233 10.187235
Si 0.746293 7.600773 4.871271
Si 6.371433 7.108303 3.905160
Si 6.781293 8.438812 8.916391
Si 5.292087 10.473422 1.223496
Si 1.429203 0.483846 1.641532
Si 6.899038 2.469942 2.999298
Si 4.527381 1.304541 9.749884
Si 9.717689 0.036557 7.284005
Si 10.075596 10.661402 1.595367
Si 6.520213 9.830247 7.181494
Si 6.431695 2.924440 10.660550
Si 2.673207 9.533829 1.370394
Si 4.641917 4.464356 0.817722
Si 2.598722 3.601137 8.609211
Si 9.073665 7.067784 4.148332
Si 8.689541 0.515718 4.114066
Si 8.646683 2.125422 6.353679
Si 1.994424 5.529458 5.264427
Si 1.093329 2.729748 4.995195
Si 7.289739 4.226630 4.577017
Si 4.447470 3.764334 2.946321
Si 1.243493 8.521661 0.094653
Si 7.229661 5.494963 1.706090
Si 2.906404 3.217472 0.307254
Si 9.841577 8.611298 9.330875
64
Step 1750
Si 9.960230 0.058260 9.664428
Si 7.239081 0.678463 8.685281
Si 5.068556 0.678187 3.755954
Si 4.347310 6.002241 4.674738
Si 10.322542 4.141556 6.658374
Si 8.654582 6.345596 7.971395
Si 8.569389 3.856954 10.463865
Si 6.127316 3.738551 7.946576
Si 1.825890 5.904535 7.756367
Si 2.180577 9.041645 3.751708
Si 0.732248 2.456483 8.527121
Si 10.325165 4.409828 3.589893
Si 6.238642 8.127887 1.173023
Si 0.529427 4.811708 0.537346
Si 3.777958 7.071620 2.358674
Si 7.274094 6.265619 6.152128
Si 3.986278 2.517871 7.071488
Si 7.362690 0.720987 1.058652
Si 6.454493 1.156764 5.733330
Si 9.774311 6.211277 1.671947
Si 2.873970 6.169263 0.452473
Si 4.474688 9.030318 6.273095
Si 5.370374 6.681262 7.784544
Si 9.460365 2.477989 1.729633
Si 1.562561 0.493287 9.521249
Si 6.711269 5.828038 9.987804
Si 1.357639 2.728216 2.293271
Si 10.271018 7.928738 6.754535
Si 5.038600 9.332089 4.223184
Si 3.205588 2.565153 4.742952
Si 8.393424 9.106632 5.758429
Si 10.442094 8.379799 1.387796
Si 2.437314 0.115678 6.728354
Si 10.336561 5.570348 9.402547
Si 7.602660 9.394917 3.081675
Si 0.489125 10.825132 5.447320
Si 2.970265 8.030237 7.478094
Si 3.859611 9.898239 9.562609
Si 4.017718 7.676210 10.279738
Si 0.703026 7.541970 4.906471
Si 6.229718 6.967709 3.896814
Si 6.685991 8.358619 9.002225
Si 5.138769 10.361827 1.195414
Si 1.498603 0.671734 1.585831
Si 6.807297 2.449285 2.833125
Si 4.547681 1.423918 9.764554
Si 9.754731 10.841470 7.266241
Si 10.083443 10.642496 1.602962
Si 6.374018 9.768903 7.296584
Si 6.340113 2.839848 10.753948
Si 2.812666 9.580850 1.392143
Si 4.619335 4.531551 0.794707
Si 2.650569 3.514137 8.709455
Si 9.149306 7.206329 4.040154
Si 8.618753 0.549709 4.066898
Si 8.629586 2.107760 6.287566
Si 1.902215 5.552731 5.287682
Si 1.073641 2.765457 5.156798
Si 7.391221 4.083219 4.607653
Si 4.417179 3.627985 2.938091
Si 1.261206 8.619948 10.734023
Si 7.319712 5.507504 1.784094
Si 2.871494 3.151846 0.288672
Si 9.940118 8.489617 9.300295
64
Step 1760
Si 9.880134 10.821581 9.538218
Si 7.107744 0.718085 8.687511
Si 5.073476 0.840774 3.839605
Si 4.191799 5.908223 4.621663
Si 10.308640 4.112858 6.493370
Si 8.630346 6.489354 8.028683
Si 8.481450 3.875067 10.451080
Si 6.247981 3.833920 7.998933
Si 1.861836 5.708461 7.801022
Si 2.201862 9.024506 3.753654
Si 0.846653 2.426918 8.427053
Si 10.265036 4.388004 3.572983
Si 6.271715 8.108901 1.109225
Si 0.653132 4.813750 0.724398
Si 3.878869 7.158572 2.288668
Si 7.215151 6.266723 6.269792
Si 4.087534 2.507696 6.955345
Si 7.448272 0.577897 1.029901
Si 6.386126 1.225407 5.672319
Si 9.774899 6.266215 1.604645
Si 2.706120 6.055737 0.370618
Si 4.322275 9.083240 6.314909
Si 5.406250 6.548033 7.751054
Si 9.688345 2.426782 1.782204
Si 1.644695 0.643993 9.662486
Si 6.795570 5.941337 10.003457
Si 1.394290 2.772490 2.347487
Si 10.270475 7.930876 6.752998
Si 4.961311 9.294266 4.130214
Si 3.190465 2.498641 4.893387
Si 8.396521 9.267691 5.799595
Si 10.519829 8.394525 1.442856
Si 2.390802 0.151041 6.710030
Si 10.409088 5.415725 9.377267
Si 7.410857 9.289021 3.298293
Si 0.398769 0.038846 5.382185
Si 2.964266 7.954169 7.514629
Si 3.981082 10.056959 9.648731
Si 4.039109 7.752140 10.224015
Si 0.718017 7.481941 4.888110
Si 6.202632 6.814198 3.850971
Si 6.611124 8.270428 9.165809
Si 4.996664 10.311545 1.174159
Si 1.561553 0.791152 1.473592
Si 6.701648 2.505750 2.703314
Si 4.574008 1.520341 9.753923
Si 9.795351 10.795220 7.228561
Si 10.075790 10.674248 1.590286
Si 6.291971 9.753097 7.385853
Si 6.263466 2.727975 10.769906
Si 2.888921 9.666098 1.450378
Si 4.665543 4.663836 0.794329
Si 2.630542 3.450517 8.799507
Si 9.223722 7.318585 3.935825
Si 8.600966 0.603417 3.968536
Si 8.588668 2.160855 6.267838
Si 1.765338 5.558661 5.373512
Si 1.108230 2.813709 5.306855
Si 7.565087 3.972405 4.597903
Si 4.375449 3.519782 3.001650
Si 1.315470 8.708021 10.483282
Si 7.352814 5.492381 1.856799
Si 2.830288 3.049906 0.202155
Si 10.039976 8.371506 9.286447
64
Step 1770
Si 9.795313 10.701037 9.437296
Si 7.028858 0.746873 8.666779
Si 5.035947 0.956306 3.867522
Si 3.984692 5.780879 4.533282
Si 10.330143 4.084476 6.425541
Si 8.633618 6.623310 8.106645
Si 8.436706 3.926357 10.510035
Si 6.315254 3.918272 8.011948
Si 1.853708 5.491880 7.845615
Si 2.172890 8.969925 3.723965
Si 0.882229 2.364747 8.252384
Si 10.147598 4.389101 3.596866
Si 6.314944 8.052851 1.092517
Si 0.731355 4.844425 0.926485
Si 3.955943 7.257615 2.289487
Si 7.158140 6.222139 6.296151
Si 4.270177 2.466106 6.907709
Si 7.551057 0.417834 0.973219
Si 6.326164 1.332634 5.759872
Si 9.777007 6.245743 1.521291
Si 2.497635 5.976093 0.285828
Si 4.186198 9.183743 6.383923
Si 5.383405 6.385359 7.683421
Si 9.834239 2.384558 1.825589
Si 1.661707 0.707357 9.775045
Si 6.904848 5.953716 10.085853
Si 1.438641 2.896910 2.462543
Si 10.290132 7.945821 6.730010
Si 4.879748 9.263024 4.009457
Si 3.207212 2.376485 5.052559
Si 8.331393 9.428623 5.886574
Si 10.635935 8.469902 1.475763
Si 2.365665 0.207854 6.751652
Si 10.460730 5.229169 9.331891
Si 7.222515 9.189344 3.473241
Si 0.365996 0.115128 5.302762
Si 2.943454 7.894339 7.642713
Si 4.089291 10.205371 9.612354
Si 4.024778 7.786145 10.055861
Si 0.746537 7.497675 4.865953
Si 6.304444 6.606267 3.821314
Si 6.547657 8.229381 9.335998
Si 4.944456 10.324239 1.238357
Si 1.608103 0.762548 1.306744
Si 6.680749 2.580151 2.564599
Si 4.640069 1.595621 9.693182
Si 9.809554 10.795766 7.139468
Si 10.042408 10.720689 1.563816
Si 6.258651 9.769400 7.456382
Si 6.211640 2.641199 10.750442
Si 2.885657 9.748473 1.571880
Si 4.787835 4.820808 0.810807
Si 2.649926 3.509453 8.768316
Si 9.278922 7.385876 3.834782
Si 8.616542 0.676109 3.842120
Si 8.507668 2.224232 6.294626
Si 1.637324 5.512860 5.465388
Si 1.096067 2.872659 5.426465
Si 7.762988 3.955194 4.570001
Si 4.265558 3.485243 3.086179
Si 1.388650 8.808537 10.245421
Si 7.329760 5.443775 1.927920
Si 2.854747 2.947966 0.121372
Si 10.164840 8.278423 9.310806
64
Step 1780
Si 9.675897 10.568823 9.383578
Si 7.009585 0.766749 8.670085
Si 5.001360 1.000942 3.857662
Si 3.749511 5.663126 4.418305
Si 10.282225 4.069699 6.480206
Si 8.632052 6.723080 8.158336
Si 8.455996 3.985753 10.618651
Si 6.355662 3.961673 8.029321
Si 1.807978 5.344755 7.922757
Si 2.061935 8.950390 3.743611
Si 0.859131 2.205808 8.029916
Si 9.975759 4.428872 3.612942
Si 6.323119 8.038068 1.111114
Si 0.746911 4.864292 1.122222
Si 4.028664 7.321592 2.290784
Si 7.171801 6.121320 6.241901
Si 4.532753 2.425681 6.966997
Si 7.611987 0.277782 0.910046
Si 6.287893 1.429373 5.939785
Si 9.775465 6.192079 1.439494
Si 2.337647 5.962974 0.181944
Si 4.012845 9.302550 6.488181
Si 5.263125 6.238135 7.643262
Si 9.861735 2.410180 1.854060
Si 1.614268 0.661726 9.785975
Si 7.023679 5.899650 10.177086
Si 1.506848 3.023434 2.618643
Si 10.347939 8.002062 6.668984
Si 4.799730 9.252511 3.925475
Si 3.238404 2.190634 5.192339
Si 8.221894 9.572458 5.929333
Si 10.757344 8.555869 1.503236
Si 2.331889 0.290923 6.834943
Si 10.474987 5.058822 9.269422
Si 7.078831 9.100818 3.627964
Si 0.397055 0.160479 5.211610
Si 2.963235 7.827516 7.809148
Si 4.161390 10.317032 9.514659
Si 3.997433 7.775390 9.871891
Si 0.742083 7.528554 4.855710
Si 6.440670 6.367889 3.858268
Si 6.485281 8.255584 9.451688
Si 4.993380 10.375107 1.344389
Si 1.598085 0.735389 1.159992
Si 6.756138 2.668348 2.431962
Si 4.713792 1.617827 9.565355
Si 9.813939 10.827042 7.016274
Si 10.029249 10.718717 1.492747
Si 6.205214 9.784858 7.525575
Si 6.246542 2.612838 10.725460
Si 2.849080 9.791890 1.684066
Si 4.946709 4.924947 0.833833
Si 2.758713 3.668687 8.609011
Si 9.334945 7.430304 3.738343
Si 8.617173 0.756417 3.733470
Si 8.395986 2.261280 6.356072
Si 1.585642 5.498609 5.522773
Si 1.070406 2.881631 5.516687
Si 7.951689 3.986777 4.505564
Si 4.123106 3.559702 3.131806
Si 1.505055 8.879957 10.011436
Si 7.299334 5.381446 2.000628
Si 2.926548 2.909693 0.099995
Si 10.321298 8.217479 9.357015
64
Step 1790
Si 9.548965 10.458013 9.355649
Si 7.102493 0.726912 8.686947
Si 5.006767 1.025844 3.852388
Si 3.547427 5.562997 4.228686
Si 10.113841 4.067383 6.590246
Si 8.640959 6.791665 8.183786
Si 8.525229 4.033543 10.726749
Si 6.424372 3.951898 8.093809
Si 1.694557 5.373750 8.037223
Si 1.897054 8.973085 3.758968
Si 0.844976 2.012482 7.876010
Si 9.857910 4.477594 3.625572
Si 6.309960 8.058017 1.185018
Si 0.737662 4.847413 1.296349
Si 4.118603 7.295432 2.286666
Si 7.193035 6.005639 6.228639
Si 4.754454 2.402227 7.057379
Si 7.597998 0.198137 0.840518
Si 6.290254 1.447481 6.087271
Si 9.727182 6.143158 1.383278
Si 2.305414 5.986914 0.016416
Si 3.864100 9.462886 6.598860
Si 5.116755 6.148109 7.651015
Si 9.807621 2.504992 1.870569
Si 1.530172 0.527152 9.752634
Si 7.122246 5.832718 10.191059
Si 1.595787 3.127661 2.794099
Si 10.371202 8.088363 6.624326
Si 4.693071 9.275705 3.949646
Si 3.243349 1.997280 5.346103
Si 8.093560 9.721178 5.882917
Si 0.077414 8.605799 1.511284
Si 2.345721 0.351542 6.943505
Si 10.490383 4.891019 9.196663
Si 6.988850 8.980594 3.755683
Si 0.428275 0.180926 5.104677
Si 2.981979 7.718142 7.944914
Si 4.200323 10.354669 9.411860
Si 3.981619 7.716258 9.755464
Si 0.699376 7.526276 4.837710
Si 6.538298 6.196022 3.922541
Si 6.432250 8.340951 9.453865
Si 5.144287 10.407568 1.409280
Si 1.551589 0.740687 1.028001
Si 6.865970 2.737271 2.331183
Si 4.746832 1.671283 9.408240
Si 9.835585 0.050918 6.935081
Si 10.041763 10.715558 1.378008
Si 6.099258 9.755871 7.592674
Si 6.331850 2.613580 10.747536
Si 2.737217 9.819779 1.738197
Si 5.056722 5.004982 0.870157
Si 2.912076 3.724537 8.483780
Si 9.371540 7.470890 3.641520
Si 8.585472 0.792058 3.638534
Si 8.315667 2.315644 6.435033
Si 1.593897 5.499295 5.519101
Si 1.061195 2.881036 5.497326
Si 8.082067 4.005313 4.440901
Si 3.986562 3.690825 3.152919
Si 1.655913 8.956490 9.849888
Si 7.292797 5.332453 2.082211
Si 3.013709 2.954126 0.079255
Si 10.460585 8.194007 9.428197
64
Step 1800
Si 9.437921 10.345241 9.353288
Si 7.339210 0.651848 8.748913
Si 5.028623 1.074726 3.831718
Si 3.398641 5.520256 4.002289
Si 9.941764 4.112857 6.748885
Si 8.688920 6.840737 8.204282
Si 8.646749 4.039296 10.789099
Si 6.542551 3.961211 8.221519
Si 1.539869 5.532048 8.156760
Si 1.733553 9.033741 3.779568
Si 0.846837 1.827880 7.800783
Si 9.928831 4.563511 3.622284
Si 6.317402 8.059137 1.243024
Si 0.780460 4.787166 1.401868
Si 4.176698 7.195786 2.317828
Si 7.214268 5.887125 6.248105
Si 4.807508 2.499764 7.201674
Si 7.545787 0.185808 0.775753
Si 6.420942 1.322409 6.067909
Si 9.647415 6.130138 1.336419
Si 2.367748 5.963526 10.676859
Si 3.754103 9.630212 6.672421
Si 4.989398 6.058591 7.666966
Si 9.776935 2.622325 1.858962
Si 1.400860 0.363001 9.689324
Si 7.189442 5.797053 10.117978
Si 1.666103 3.211263 2.935533
Si 10.311848 8.189352 6.655301
Si 4.534867 9.317159 4.018664
Si 3.173644 1.837872 5.435335
Si 7.963398 9.900980 5.807464
Si 0.263355 8.597167 1.482949
Si 2.370920 0.347927 7.044810
Si 10.504970 4.780347 9.142211
Si 6.983583 8.813308 3.887550
Si 0.416445 0.209456 4.954339
Si 2.906330 7.533411 7.865330
Si 4.199077 10.390009 9.384869
Si 4.070308 7.610195 9.898637
Si 0.636072 7.477123 4.786082
Si 6.570677 6.185911 4.030191
Si 6.412601 8.370220 9.414092
Si 5.287854 10.450983 1.436849
Si 1.490571 0.855517 0.960857
Si 6.966492 2.726829 2.247533
Si 4.752618 1.770635 9.326167
Si 9.885195 0.165942 6.885441
Si 10.042250 10.734871 1.242933
Si 5.992476 9.660647 7.608462
Si 6.405974 2.644789 10.782217
Si 2.623135 9.833695 1.766414
Si 5.071093 5.046005 0.907472
Si 3.097440 3.715653 8.382474
Si 9.382288 7.469416 3.538296
Si 8.561300 0.784958 3.542624
Si 8.290918 2.358836 6.527105
Si 1.585498 5.483957 5.501266
Si 1.055187 2.918802 5.358563
Si 8.108633 3.900678 4.514086
Si 3.884820 3.777627 3.171150
Si 1.780153 9.049016 9.753925
Si 7.268689 5.357532 2.133952
Si 3.077804 3.050821 0.074609
Si 10.526994 8.187689 9.505759
64
Step 1810
Si 9.357350 10.217438 9.398714
Si 7.590963 0.579072 8.856903
Si 5.040763 1.145764 3.772676
Si 3.287556 5.635096 3.837617
Si 9.841490 4.148615 6.938682
Si 8.737280 6.874268 8.230299
Si 8.794386 4.020637 10.826664
Si 6.670768 4.019561 8.330346
Si 1.422155 5.708151 8.256669
Si 1.608168 9.172109 3.834189
Si 0.809495 1.774171 7.758100
Si 10.089704 4.693657 3.610788
Si 6.349041 8.066017 1.298444
Si 0.898370 4.736878 1.434069
Si 4.210664 7.065009 2.341585
Si 7.227321 5.788658 6.341264
Si 4.861002 2.636787 7.255480
Si 7.495617 0.171654 0.729360
Si 6.591296 1.157909 5.975321
Si 9.572773 6.130834 1.276508
Si 2.473144 5.872260 10.500426
Si 3.707802 9.667423 6.662284
Si 4.924138 5.911697 7.686550
Si 9.778538 2.702920 1.816782
Si 1.222673 0.245689 9.680589
Si 7.241905 5.817555 10.007374
Si 1.706908 3.227399 3.005333
Si 10.221131 8.357558 6.686321
Si 4.346536 9.369109 4.092066
Si 3.136369 1.726298 5.491959
Si 7.835700 10.070114 5.700884
Si 0.381033 8.554385 1.435165
Si 2.380354 0.325606 7.090951
Si 10.508611 4.702213 9.078521
Si 7.003269 8.611060 3.976283
Si 0.369374 0.200731 4.777783
Si 2.791074 7.344928 7.701139
Si 4.205598 10.476867 9.475710
Si 4.193610 7.458444 10.160072
Si 0.483356 7.403939 4.733321
Si 6.560314 6.313698 4.132491
Si 6.444404 8.313373 9.392044
Si 5.385700 10.497623 1.476171
Si 1.429979 1.045598 0.940582
Si 7.039846 2.646938 2.209104
Si 4.785410 1.804113 9.394444
Si 9.925488 0.294501 6.827770
Si 10.040638 10.747560 1.123121
Si 5.929555 9.568492 7.568736
Si 6.429611 2.712722 10.795828
Si 2.575283 9.849878 1.773533
Si 4.986777 5.043046 0.906303
Si 3.184964 3.793192 8.270057
Si 9.391083 7.459011 3.438805
Si 8.605235 0.703270 3.436941
Si 8.232321 2.381643 6.640889
Si 1.567687 5.445924 5.507957
Si 1.016602 2.986062 5.188746
Si 8.061901 3.719549 4.688363
Si 3.820207 3.701391 3.130331
Si 1.865600 9.067168 9.719070
Si 7.241918 5.428972 2.143988
Si 3.148719 3.211990 0.097834
Si 10.547489 8.197805 9.579686
64
Step 1820
Si 9.298585 10.084433 9.448465
Si 7.758061 0.560309 8.934537
Si 5.024184 1.199272 3.740289
Si 3.206310 5.847640 3.764154
Si 9.787566 4.141490 7.132934
Si 8.791573 6.861750 8.224842
Si 8.923342 3.975193 10.825318
Si 6.837037 4.079159 8.434448
Si 1.279844 5.862569 8.386584
Si 1.484088 9.333936 3.948240
Si 0.717608 1.822104 7.697798
Si 10.191041 4.829325 3.632760
Si 6.388523 8.089704 1.329602
Si 1.089174 4.718019 1.380519
Si 4.241466 6.963283 2.388943
Si 7.250305 5.715156 6.469041
Si 4.947258 2.741653 7.208697
Si 7.455471 0.151497 0.686277
Si 6.700294 1.007835 5.866093
Si 9.546870 6.152191 1.237906
Si 2.551318 5.728854 10.361816
Si 3.724870 9.521094 6.602168
Si 4.904440 5.790889 7.743809
Si 9.783207 2.736466 1.779582
Si 1.026931 0.244052 9.707310
Si 7.217588 5.890117 9.944623
Si 1.687297 3.121860 2.972352
Si 10.139984 8.539142 6.692278
Si 4.203641 9.426671 4.119526
Si 3.183853 1.695319 5.511951
Si 7.741023 10.175658 5.571802
Si 0.410202 8.460681 1.375212
Si 2.327957 0.326727 7.125062
Si 10.542640 4.675796 9.008267
Si 7.023833 8.421474 4.035774
Si 0.288786 0.199693 4.617653
Si 2.700742 7.229081 7.486415
Si 4.195202 10.508165 9.598008
Si 4.302565 7.302922 10.431212
Si 0.285100 7.378688 4.724062
Si 6.541192 6.461654 4.242645
Si 6.500560 8.212093 9.376575
Si 5.370968 10.494337 1.575323
Si 1.409279 1.292104 0.975900
Si 7.148204 2.556376 2.237627
Si 4.868955 1.775795 9.548955
Si 9.981594 0.430687 6.757502
Si 10.005261 10.764120 1.032956
Si 5.905877 9.524356 7.534057
Si 6.478670 2.780621 10.782143
Si 2.639430 9.895954 1.750145
Si 4.934461 5.010661 0.849194
Si 3.156815 3.953918 8.148502
Si 9.353639 7.458185 3.327117
Si 8.687106 0.597446 3.340346
Si 8.178361 2.372336 6.807426
Si 1.535019 5.434858 5.517532
Si 0.945588 3.023256 5.055716
Si 8.003578 3.565945 4.814253
Si 3.802649 3.583533 3.046928
Si 1.985668 8.938744 9.718042
Si 7.216947 5.495793 2.116469
Si 3.189842 3.372532 0.151294
Si 10.584569 8.216821 9.593009
64
Step 1830
Si 9.299012 9.931709 9.476301
Si 7.797388 0.605454 8.946366
Si 4.994895 1.233724 3.723697
Si 3.049743 5.947010 3.799267
Si 9.729478 4.088666 7.158112
Si 8.878408 6.886078 8.192319
Si 9.020233 3.914085 10.816939
Si 7.007798 4.102098 8.549492
Si 1.222610 6.093290 8.486753
Si 1.371918 9.461431 4.068231
Si 0.602196 1.945237 7.619209
Si 10.213620 4.933076 3.663675
Si 6.426225 8.151697 1.399352
Si 1.238973 4.737344 1.331153
Si 4.371617 6.990750 2.439460
Si 7.274552 5.648864 6.554410
Si 5.023582 2.808035 7.135020
Si 7.399844 0.132085 0.630121
Si 6.640590 1.052900 5.741429
Si 9.557020 6.171598 1.207158
Si 2.583744 5.637873 10.232965
Si 3.735808 9.301871 6.548307
Si 4.850595 5.734795 7.816371
Si 9.821669 2.744081 1.735694
Si 0.857723 0.278706 9.710065
Si 7.156436 5.970798 9.983172
Si 1.606702 2.918400 2.956743
Si 10.022952 8.700223 6.720801
Si 4.129094 9.437783 4.058160
Si 3.259040 1.755905 5.511211
Si 7.814942 10.118593 5.452665
Si 0.413431 8.399546 1.301652
Si 2.317080 0.256644 7.184056
Si 10.518291 4.591373 9.121347
Si 7.071408 8.369386 4.035960
Si 0.168108 0.284501 4.471281
Si 2.687772 7.203785 7.257797
Si 4.136035 10.426729 9.701682
Si 4.327864 7.198880 10.609715
Si 0.113653 7.409085 4.800901
Si 6.499000 6.447485 4.349965
Si 6.539207 8.131299 9.339427
Si 5.281413 10.467670 1.708489
Si 1.412285 1.548443 1.035764
Si 7.299245 2.501299 2.319724
Si 4.946795 1.792619 9.686192
Si 10.019763 0.524914 6.697821
Si 9.971544 10.761607 0.972770
Si 5.884670 9.517795 7.557570
Si 6.583223 2.807656 10.755947
Si 2.741388 9.956603 1.709037
Si 5.031282 4.958142 0.811726
Si 3.111305 4.094080 8.004675
Si 9.235465 7.495150 3.191922
Si 8.790700 0.491952 3.293403
Si 8.117726 2.302793 7.007932
Si 1.505074 5.468960 5.515499
Si 0.876195 3.000677 4.967198
Si 7.938818 3.460498 4.855758
Si 3.840295 3.491217 2.993016
Si 2.192212 8.788376 9.728463
Si 7.167268 5.529541 2.069385
Si 3.251181 3.436741 0.163020
Si 10.635909 8.172390 9.562278
64
Step 1840
Si 9.327708 9.769808 9.456345
Si 7.779803 0.697826 8.941840
Si 4.993017 1.270776 3.720820
Si 2.878270 5.960001 3.839936
Si 9.691599 4.021869 7.087620
Si 8.972063 6.882689 8.139294
Si 9.086940 3.896562 10.811761
Si 7.172776 4.130027 8.680890
Si 1.107541 6.347457 8.526478
Si 1.276809 9.524498 4.130676
Si 0.515844 2.071418 7.566153
Si 10.193578 4.918577 3.650722
Si 6.493461 8.228891 1.453647
Si 1.241739 4.778658 1.315945
Si 4.494030 7.073077 2.517417
Si 7.292936 5.604186 6.551018
Si 5.087085 2.849117 7.087986
Si 7.330206 0.111237 0.617342
Si 6.446554 1.139012 5.605421
Si 9.597280 6.165724 1.117097
Si 2.620135 5.626130 10.138609
Si 3.745565 9.078161 6.484273
Si 4.760374 5.712041 7.877954
Si 9.887230 2.777416 1.745114
Si 0.738452 0.356891 9.663091
Si 7.112429 6.064000 10.100635
Si 1.539823 2.674907 2.952323
Si 9.890741 8.897967 6.715515
Si 4.073943 9.435619 4.012940
Si 3.302810 1.825293 5.484470
Si 7.975264 10.006992 5.344863
Si 0.447504 8.376319 1.222565
Si 2.384912 0.175128 7.275325
Si 10.500487 4.503158 9.300342
Si 7.206452 8.475253 4.007808
Si 10.845018 0.410855 4.354257
Si 2.747197 7.211674 7.034393
Si 4.088669 10.306886 9.782257
Si 4.327204 7.152233 10.706114
Si 10.808689 7.503040 4.922345
Si 6.445858 6.228347 4.469528
Si 6.552090 8.100454 9.321383
Si 5.177320 10.428799 1.785680
Si 1.447076 1.730030 1.057973
Si 7.461841 2.484117 2.453436
Si 5.021169 1.832122 9.811394
Si 10.022096 0.573296 6.639620
Si 9.928268 10.765382 0.966870
Si 5.824010 9.567667 7.618320
Si 6.688852 2.779000 10.723422
Si 2.790142 10.014259 1.607611
Si 5.235410 4.849252 0.816278
Si 3.062773 4.194099 7.859317
Si 9.072021 7.590933 3.085884
Si 8.890540 0.400504 3.255405
Si 8.047506 2.173480 7.252114
Si 1.478522 5.533779 5.546738
Si 0.778203 2.975371 4.987095
Si 7.885892 3.428315 4.784606
Si 3.906697 3.427468 2.962259
Si 2.428305 8.656406 9.788542
Si 7.165885 5.504050 2.043100
Si 3.331268 3.383811 0.119629
Si 10.684135 8.089680 9.546183
64
Step 1850
Si 9.308408 9.632882 9.375527
Si 7.711252 0.768875 8.985226
Si 5.072028 1.321408 3.702183
Si 2.754692 5.924679 3.765884
Si 9.646015 3.980212 7.002611
Si 9.025836 6.829982 8.026560
Si 9.087795 3.916542 10.850096
Si 7.258099 4.174625 8.758491
Si 0.990758 6.554053 8.571878
Si 1.204386 9.521460 4.105530
Si 0.528251 2.218397 7.519221
Si 10.181333 4.879122 3.615062
Si 6.601253 8.330542 1.480382
Si 1.192849 4.881343 1.357509
Si 4.572001 7.156887 2.647970
Si 7.333353 5.578267 6.562571
Si 5.142685 2.857137 7.110342
Si 7.295297 0.081864 0.632991
Si 6.248661 1.198865 5.467099
Si 9.676849 6.172497 0.993186
Si 2.662888 5.619069 10.070883
Si 3.784998 8.944535 6.405652
Si 4.728762 5.751108 7.935605
Si 9.941609 2.820157 1.804863
Si 0.713282 0.405368 9.623242
Si 7.118293 6.138286 10.243170
Si 1.518126 2.487395 3.083834
Si 9.773612 9.074958 6.676156
Si 3.999409 9.402056 4.006565
Si 3.275590 1.923608 5.502538
Si 8.072892 9.939516 5.279136
Si 0.517332 8.405620 1.219237
Si 2.497112 0.059802 7.409832
Si 10.525760 4.431202 9.404025
Si 7.278642 8.542654 3.956575
Si 10.722500 0.543976 4.297199
Si 2.850089 7.195243 6.856873
Si 4.034672 10.275767 9.824671
Si 4.319506 7.092002 10.772246
Si 10.636673 7.631437 5.032406
Si 6.398198 5.997251 4.529212
Si 6.577284 8.167353 9.301051
Si 5.056199 10.396107 1.819642
Si 1.520904 1.730951 0.910122
Si 7.543186 2.432531 2.622610
Si 5.011157 1.837571 9.859765
Si 10.016049 0.615624 6.552625
Si 9.900858 10.785817 0.994317
Si 5.735086 9.661088 7.680537
Si 6.845396 2.758195 10.734353
Si 2.742017 10.059439 1.458897
Si 5.445743 4.695820 0.868509
Si 2.910337 4.224877 7.689704
Si 8.971361 7.654005 2.955876
Si 8.931027 0.321008 3.189272
Si 7.960968 2.025138 7.467664
Si 1.432797 5.558205 5.591329
Si 0.692934 2.988018 5.068906
Si 7.834860 3.439063 4.689294
Si 3.956390 3.417127 2.923402
Si 2.633074 8.574352 9.877562
Si 7.221612 5.427579 2.091060
Si 3.407171 3.282536 0.041320
Si 10.759860 8.008944 9.593934
64
Step 1860
Si 9.244800 9.530476 9.296906
Si 7.583775 0.617078 9.209844
Si 5.125740 1.380312 3.588218
Si 2.718048 5.816726 3.546049
Si 9.567735 4.007033 6.894217
Si 9.004023 6.759898 7.895568
Si 9.020517 3.932901 0.096592
Si 7.256516 4.277496 8.757847
Si 0.982107 6.672290 8.578734
Si 1.160179 9.426821 4.004598
Si 0.662670 2.358825 7.555523
Si 10.146140 4.835986 3.558219
Si 6.658727 8.418332 1.455765
Si 1.193415 4.953942 1.435163
Si 4.638711 7.199997 2.810896
Si 7.368573 5.553187 6.637346
Si 5.162409 2.882769 7.218657
Si 7.301568 0.059351 0.636776
Si 6.125266 1.244186 5.410677
Si 9.797151 6.220708 0.869394
Si 2.703511 5.533633 10.045151
Si 3.925564 9.015607 6.286396
Si 4.755693 5.771804 7.992884
Si 10.011596 2.836970 1.884053
Si 0.724181 0.428300 9.564357
Si 7.198716 6.223467 10.353875
Si 1.547669 2.348692 3.221786
Si 9.672533 9.182725 6.680115
Si 3.924758 9.335282 4.022413
Si 3.214015 2.045724 5.580309
Si 8.066336 9.990338 5.305012
Si 0.568078 8.496414 1.262989
Si 2.600964 10.833219 7.573842
Si 10.665174 4.401773 9.421670
Si 7.210707 8.464291 3.856176
Si 10.767410 0.700031 4.295677
Si 2.884091 7.052288 6.767211
Si 4.016149 10.398129 9.831312
Si 4.352824 7.012855 10.821885
Si 10.489047 7.762901 5.079954
Si 6.335868 5.801015 4.469743
Si 6.625653 8.266820 9.283192
Si 4.916858 10.369895 1.816026
Si 1.594560 1.647306 0.693213
Si 7.553327 2.376276 2.776812
Si 4.962591 1.839647 9.835515
Si 9.994054 0.682733 6.532476
Si 9.924392 10.813052 1.012116
Si 5.638379 9.757152 7.759723
Si 6.955191 2.711098 10.812095
Si 2.619152 10.135189 1.360558
Si 5.591117 4.526455 0.943962
Si 2.688406 4.164863 7.487067
Si 9.010697 7.631494 2.825740
Si 8.841947 0.214398 3.018566
Si 7.908051 1.992340 7.442340
Si 1.353218 5.567756 5.634125
Si 0.648955 3.073596 5.145335
Si 7.834017 3.530657 4.661805
Si 3.940049 3.479695 2.864631
Si 2.797249 8.479113 9.957027
Si 7.300452 5.343414 2.215930
Si 3.494528 3.165205 10.847137
Si 10.762215 8.032066 9.746792
64
Step 1870
Si 9.135729 9.479497 9.247581
Si 7.430514 0.391386 9.377065
Si 5.126891 1.444036 3.374896
Si 2.721479 5.686460 3.272965
Si 9.486469 4.022393 6.764678
Si 8.933265 6.756503 7.796630
Si 8.972341 3.937659 0.218615
Si 7.159295 4.380281 8.740452
Si 1.014199 6.723660 8.560803
Si 1.066993 9.324125 3.852164
Si 0.863697 2.437142 7.694596
Si 10.063224 4.805614 3.512088
Si 6.644286 8.481495 1.335445
Si 1.204541 4.974052 1.491096
Si 4.690777 7.209521 2.976296
Si 7.332401 5.578313 6.727147
Si 5.170538 2.922093 7.367531
Si 7.327595 10.851845 0.653285
Si 6.072588 1.304942 5.460434
Si 9.941791 6.287295 0.754553
Si 2.747448 5.351311 10.034610
Si 4.070031 9.110168 6.211539
Si 4.798525 5.748817 8.066182
Si 10.123733 2.798056 1.946495
Si 0.708295 0.439344 9.477760
Si 7.328819 6.356353 10.445931
Si 1.636185 2.252217 3.250826
Si 9.572458 9.210775 6.789354
Si 3.840545 9.262399 4.015910
Si 3.162874 2.158810 5.706601
Si 7.925262 10.069190 5.271290
Si 0.611745 8.644797 1.352715
Si 2.689712 10.787871 7.745211
Si 0.048594 4.410853 9.420041
Si 7.069717 8.314080 3.793538
Si 10.832051 0.785042 4.263982
Si 2.910840 6.965158 6.713287
Si 4.060678 10.593033 9.767608
Si 4.443447 6.908248 0.018840
Si 10.407550 7.885556 5.027141
Si 6.265249 5.652129 4.376986
Si 6.739086 8.348369 9.273386
Si 4.782105 10.348997 1.797834
Si 1.629332 1.556585 0.499035
Si 7.533587 2.294939 2.888150
Si 4.906605 1.827223 9.746700
Si 9.978145 0.807082 6.581150
Si 10.009987 0.007607 0.966446
Si 5.574657 9.875030 7.849423
Si 7.000314 2.721413 0.083120
Si 2.459859 10.225294 1.356931
Si 5.652268 4.354879 1.015898
Si 2.456831 4.069379 7.315356
Si 9.151058 7.560502 2.757819
Si 8.744675 0.099252 2.922914
Si 7.888029 1.973866 7.351176
Si 1.237905 5.581699 5.587946
Si 0.624728 3.211882 5.194266
Si 7.876242 3.641138 4.688986
Si 3.872926 3.549638 2.809455
Si 2.895699 8.383535 10.001726
Si 7.468902 5.240993 2.383265
Si 3.586379 3.090520 10.828564
Si 10.764328 8.111656 9.948275
64
Step 1880
Si 9.064442 9.485326 9.216446
Si 7.295148 0.192029 9.425279
Si 5.093430 1.522752 3.146046
Si 2.760909 5.562763 2.989740
Si 9.450056 4.021475 6.681046
Si 8.919230 6.821932 7.792617
Si 8.976836 3.961491 0.325864
Si 7.057004 4.490098 8.763357
Si 1.059585 6.726416 8.503656
Si 0.971043 9.243039 3.710796
Si 1.019615 2.439733 7.919984
Si 9.979565 4.823970 3.466819
Si 6.580050 8.523692 1.168419
Si 1.189115 4.967449 1.525912
Si 4.668397 7.205882 3.116111
Si 7.201373 5.639043 6.812263
Si 5.153437 2.959764 7.543351
Si 7.338538 10.776258 0.750687
Si 6.015239 1.367806 5.584404
Si 10.081803 6.311296 0.613051
Si 2.753538 5.122683 10.015061
Si 4.172634 9.180978 6.195799
Si 4.816349 5.733931 8.156216
Si 10.299527 2.697020 1.970003
Si 0.666034 0.433827 9.318914
Si 7.437480 6.453974 10.513983
Si 1.741913 2.180894 3.173552
Si 9.456587 9.212610 6.885188
Si 3.750517 9.179457 3.945239
Si 3.174708 2.215941 5.816167
Si 7.701083 10.137837 5.203622
Si 0.653978 8.857462 1.464475
Si 2.753188 10.777511 7.890648
Si 0.298584 4.453062 9.412314
Si 6.927686 8.218638 3.784137
Si 10.860459 0.766558 4.194845
Si 2.967088 6.926002 6.688239
Si 4.074204 10.750818 9.712976
Si 4.639561 6.771736 0.114979
Si 10.386757 8.002347 4.953150
Si 6.199474 5.550453 4.280616
Si 6.838534 8.355871 9.237462
Si 4.637441 10.335310 1.776219
Si 1.614268 1.456762 0.364735
Si 7.516202 2.172666 2.953015
Si 4.926244 1.811439 9.563052
Si 9.987080 0.932352 6.648238
Si 10.158318 0.088402 0.897721
Si 5.547637 9.996661 7.894754
Si 7.028219 2.730698 0.198046
Si 2.351766 10.302042 1.380077
Si 5.681226 4.241591 1.086318
Si 2.319658 4.059340 7.254011
Si 9.304142 7.464692 2.726273
Si 8.649798 10.855581 2.943866
Si 7.879499 1.941381 7.267318
Si 1.089100 5.671372 5.470485
Si 0.583164 3.353253 5.185126
Si 7.928695 3.687200 4.780393
Si 3.806976 3.597736 2.765579
Si 2.937912 8.324562 10.079470
Si 7.643340 5.158398 2.481021
Si 3.620266 3.060132 10.858173
Si 10.790364 8.182599 10.164665
64
Step 1890
Si 9.111681 9.529764 9.189434
Si 7.220862 0.104540 9.407155
Si 5.038623 1.603772 2.920069
Si 2.794969 5.466089 2.750868
Si 9.473956 4.037681 6.646232
Si 8.931370 6.878411 7.823994
Si 8.987527 3.968011 0.401535
Si 7.009657 4.588408 8.857616
Si 1.115291 6.751207 8.407768
Si 0.906558 9.216876 3.643826
Si 1.087505 2.361220 8.189401
Si 9.914064 4.853728 3.438747
Si 6.476856 8.540229 1.042885
Si 1.157863 4.977002 1.529655
Si 4.572925 7.171416 3.166969
Si 7.082645 5.737032 6.841210
Si 5.145065 2.981453 7.673837
Si 7.309213 10.737063 0.921908
Si 5.933278 1.419425 5.704843
Si 10.197092 6.301848 0.437010
Si 2.791340 4.894032 10.001744
Si 4.233725 9.207211 6.211555
Si 4.716394 5.752740 8.277724
Si 10.451551 2.583219 1.972007
Si 0.606164 0.393642 9.127337
Si 7.568871 6.471791 10.565820
Si 1.907876 2.080608 3.068602
Si 9.356494 9.212470 6.915038
Si 3.644537 9.093070 3.827836
Si 3.214560 2.185116 5.891338
Si 7.462065 10.223685 5.155963
Si 0.648897 9.057203 1.572869
Si 2.738431 10.826363 7.936215
Si 0.483605 4.484535 9.454279
Si 6.852958 8.181414 3.790881
Si 10.841948 0.665329 4.116109
Si 3.058307 6.893702 6.708574
Si 3.984971 10.789122 9.774449
Si 4.877720 6.611230 0.225973
Si 10.330458 8.089953 4.944396
Si 6.171762 5.495108 4.206802
Si 6.874073 8.201861 9.165757
Si 4.526365 10.385552 1.759158
Si 1.634742 1.372271 0.260631
Si 7.541418 2.044268 2.988260
Si 5.017477 1.905972 9.397781
Si 9.989138 1.036169 6.703250
Si 10.260849 0.181507 0.807310
Si 5.565256 10.099225 7.854738
Si 7.028862 2.724629 0.266877
Si 2.346328 10.415083 1.349287
Si 5.724001 4.173087 1.118171
Si 2.325711 4.190457 7.262344
Si 9.433953 7.414212 2.734099
Si 8.570693 10.761244 3.055675
Si 7.867193 1.916240 7.226641
Si 0.938271 5.862121 5.310859
Si 0.514234 3.468047 5.146768
Si 7.950838 3.640028 4.922521
Si 3.760698 3.592642 2.731358
Si 2.927878 8.273845 10.172257
Si 7.771801 5.103047 2.493499
Si 3.596636 3.030242 0.038659
Si 0.007967 8.237526 10.353615
64
Step 1900
Si 9.259703 9.600825 9.207734
Si 7.220126 0.124722 9.375252
Si 4.987265 1.636285 2.731483
Si 2.826417 5.521018 2.622921
Si 9.504638 4.086868 6.650447
Si 8.979329 6.863906 7.878450
Si 9.006111 3.958798 0.427996
Si 6.995152 4.621531 9.038635
Si 1.154784 6.819612 8.257078
Si 0.928069 9.257479 3.760855
Si 1.121504 2.303383 8.404339
Si 9.873920 4.885214 3.421108
Si 6.337326 8.588388 0.991379
Si 1.075253 4.991408 1.429117
Si 4.434073 7.094676 3.138207
Si 7.015877 5.847159 6.799101
Si 5.190997 3.084936 7.637733
Si 7.268246 10.725061 1.082031
Si 5.839300 1.470801 5.743257
Si 10.279425 6.314915 0.314240
Si 2.859514 4.756404 10.018576
Si 4.223907 9.159876 6.163595
Si 4.549489 5.787988 8.436584
Si 10.559397 2.477336 1.941404
Si 0.504014 0.274024 8.917286
Si 7.738764 6.409616 10.589142
Si 2.096518 1.958449 3.002120
Si 9.266040 9.232842 6.843045
Si 3.544280 9.019143 3.765806
Si 3.199555 2.128227 5.903976
Si 7.244723 10.314435 5.129345
Si 0.555540 9.205463 1.599797
Si 2.660819 0.019890 7.883640
Si 0.577485 4.508769 9.553113
Si 6.826367 8.142480 3.762369
Si 10.816957 0.565564 4.075738
Si 3.149829 6.878477 6.733516
Si 3.881383 10.794857 9.884720
Si 5.050909 6.433946 0.348480
Si 10.243318 8.117565 4.992597
Si 6.188021 5.479991 4.194558
Si 6.880354 8.000256 9.072432
Si 4.529441 10.460739 1.788426
Si 1.694356 1.402475 0.145263
Si 7.575166 1.933801 3.052323
Si 5.149161 1.903680 9.405142
Si 10.004719 1.153436 6.735684
Si 10.229005 0.292544 0.708395
Si 5.640275 10.192577 7.735286
Si 7.043190 2.629075 0.237138
Si 2.454029 10.531058 1.304648
Si 5.758743 4.184310 1.138567
Si 2.376179 4.340640 7.212910
Si 9.530674 7.399337 2.775732
Si 8.480623 10.654451 3.197507
Si 7.871858 1.874665 7.263448
Si 0.810374 6.137040 5.177386
Si 0.484918 3.491160 5.134032
Si 7.914134 3.529640 5.090242
Si 3.765187 3.457876 2.755531
Si 2.900846 8.217733 10.256214
Si 7.820768 5.075480 2.451630
Si 3.532490 2.997244 0.119043
Si 0.103181 8.262450 10.452239
64
Step 1910
Si 9.381029 9.690692 9.220951
Si 7.264319 0.168285 9.330104
Si 5.050394 1.628267 2.621100
Si 2.835541 5.612328 2.566651
Si 9.550962 4.204007 6.741178
Si 9.079907 6.818358 7.947849
Si 9.059752 3.895663 0.416362
Si 7.012402 4.632264 9.197654
Si 1.164617 6.907002 8.107065
Si 1.029135 9.362971 3.958967
Si 1.150467 2.380872 8.509598
Si 9.886535 4.895923 3.459300
Si 6.181577 8.618571 0.996221
Si 0.967096 5.009847 1.327463
Si 4.340046 7.003384 3.079339
Si 6.980443 5.944899 6.735725
Si 5.211761 3.241214 7.556949
Si 7.280260 10.704111 1.175848
Si 5.752171 1.517432 5.678923
Si 10.328658 6.342662 0.233954
Si 2.904000 4.832967 10.028904
Si 4.159186 9.089303 6.078635
Si 4.431802 5.853558 8.592017
Si 10.660830 2.421260 1.934399
Si 0.326669 0.035190 8.715406
Si 7.917027 6.353890 10.605137
Si 2.121063 1.803555 3.050250
Si 9.160447 9.274449 6.740457
Si 3.428887 8.964182 3.757013
Si 3.065736 2.095882 5.920542
Si 7.029009 10.356939 5.164213
Si 0.433168 9.363065 1.616818
Si 2.671417 0.034032 7.733007
Si 0.597388 4.523691 9.606679
Si 6.837318 8.102421 3.672875
Si 10.795600 0.480144 4.070892
Si 3.234225 6.890459 6.741537
Si 3.815743 10.739244 9.900828
Si 5.148974 6.263011 0.457738
Si 10.159320 8.117879 5.059050
Si 6.191308 5.469579 4.185419
Si 6.873199 7.828211 8.962117
Si 4.657626 10.464922 1.917345
Si 1.737837 1.548445 0.032180
Si 7.585057 1.924175 3.140828
Si 5.279881 1.859508 9.519251
Si 10.028739 1.251966 6.717485
Si 10.065876 0.387776 0.620546
Si 5.731390 10.252120 7.548347
Si 7.072552 2.465830 0.195905
Si 2.531945 10.594809 1.271331
Si 5.813934 4.212545 1.156554
Si 2.378944 4.423416 7.052732
Si 9.556071 7.390722 2.835459
Si 8.417695 10.550882 3.325019
Si 7.873300 1.798246 7.368418
Si 0.737457 6.411678 5.123366
Si 0.551965 3.432400 5.145052
Si 7.821053 3.413219 5.206910
Si 3.800454 3.431303 2.824645
Si 2.864514 8.107676 10.326438
Si 7.808312 5.075854 2.391597
Si 3.534976 2.881468 0.232255
Si 0.265046 8.233373 10.453188
64
Step 1920
Si 9.418330 9.732298 9.252954
Si 7.323040 0.150425 9.264003
Si 5.229503 1.647783 2.580963
Si 2.753890 5.568887 2.475551
Si 9.581107 4.322848 6.882382
Si 9.254407 6.751893 7.985152
Si 9.137593 3.750889 0.395759
Si 7.010136 4.589093 9.269326
Si 1.134747 6.970709 7.972403
Si 1.167468 9.422185 4.179828
Si 1.188384 2.520259 8.536120
Si 9.954151 4.840312 3.534574
Si 6.041929 8.539916 0.997295
Si 0.908317 4.976523 1.310964
Si 4.418998 6.963241 3.030364
Si 6.927439 5.996716 6.693347
Si 5.219840 3.441601 7.506077
Si 7.371217 10.688152 1.187549
Si 5.641836 1.579919 5.538247
Si 10.319398 6.424089 0.195161
Si 2.918070 4.969784 10.066273
Si 4.028651 8.985328 5.997558
Si 4.406893 5.940353 8.679553
Si 10.736306 2.418069 1.957208
Si 0.160015 10.655037 8.488801
Si 8.110967 6.342201 10.649147
Si 2.038519 1.654356 3.196347
Si 9.005566 9.348843 6.685616
Si 3.309825 8.977635 3.774558
Si 2.892702 2.078098 5.952011
Si 6.841231 10.347101 5.223090
Si 0.291905 9.516694 1.620817
Si 2.762753 0.039095 7.541055
Si 0.618855 4.538955 9.551527
Si 6.853018 8.101873 3.550453
Si 10.754668 0.495294 4.067092
Si 3.291135 6.948879 6.733279
Si 3.812675 10.628728 9.809698
Si 5.134326 6.185348 0.596419
Si 10.102675 8.135069 5.066453
Si 6.210304 5.450071 4.200664
Si 6.827050 7.799247 8.804433
Si 4.734186 10.396953 2.103408
Si 1.733483 1.703997 10.768575
Si 7.560188 2.030418 3.193124
Si 5.382848 1.826286 9.639685
Si 10.096886 1.351120 6.677783
Si 9.867674 0.450243 0.580304
Si 5.780314 10.252320 7.418644
Si 7.141152 2.293134 0.237543
Si 2.567266 10.591284 1.243821
Si 5.915940 4.199958 1.197306
Si 2.352595 4.444341 6.879473
Si 9.512083 7.410102 2.842145
Si 8.416940 10.449164 3.431736
Si 7.850868 1.770439 7.513753
Si 0.766387 6.599640 5.189872
Si 0.631059 3.354923 5.146238
Si 7.689626 3.368742 5.273069
Si 3.814609 3.492954 2.931494
Si 2.845840 7.964353 10.395004
Si 7.794493 5.030726 2.324204
Si 3.535777 2.787881 0.320655
Si 0.483958 8.243220 10.414079
64
Step 1930
Si 9.268651 9.597338 9.332914
Si 7.438251 0.043577 9.156589
Si 5.402975 1.684242 2.572372
Si 2.669763 5.467728 2.424085
Si 9.620069 4.413621 7.029844
Si 9.431928 6.720929 8.056406
Si 9.237284 3.580751 0.362307
Si 6.982048 4.548258 9.304739
Si 1.088038 7.001160 7.867781
Si 1.226268 9.459029 4.383143
Si 1.212142 2.608718 8.508900
Si 10.046675 4.785175 3.626351
Si 5.952976 8.360094 0.938449
Si 0.841227 4.911726 1.356416
Si 4.511522 6.971838 2.987057
Si 6.866934 5.959702 6.708476
Si 5.241363 3.657179 7.455346
Si 7.511414 10.681579 1.192564
Si 5.503615 1.686737 5.379470
Si 10.282537 6.600251 0.203668
Si 2.872985 5.088416 10.159040
Si 3.887754 8.888673 5.935476
Si 4.496569 6.063918 8.670569
Si 10.791003 2.447429 1.967718
Si 0.188804 10.556310 8.179466
Si 8.230180 6.411206 10.674405
Si 1.996012 1.529094 3.369491
Si 8.821173 9.458865 6.658652
Si 3.271319 8.982185 3.786613
Si 2.778081 2.040108 5.992024
Si 6.712554 10.293985 5.254167
Si 0.105899 9.649496 1.646576
Si 2.838539 0.075183 7.369342
Si 0.627026 4.578089 9.392578
Si 6.903636 8.117489 3.432710
Si 10.695347 0.537161 4.102185
Si 3.330067 6.994437 6.750200
Si 3.793367 10.462086 9.664667
Si 5.100984 6.194305 0.710489
Si 10.055096 8.192163 5.024895
Si 6.262454 5.450884 4.225072
Si 6.790657 7.823955 8.655692
Si 4.738184 10.306939 2.315137
Si 1.680035 1.789150 10.603992
Si 7.532514 2.176961 3.238877
Si 5.437720 1.837111 9.730846
Si 10.200334 1.506813 6.637755
Si 9.688107 0.480766 0.557843
Si 5.791359 10.198451 7.353811
Si 7.244023 2.174212 0.341448
Si 2.579379 10.538244 1.189383
Si 6.011634 4.136759 1.203773
Si 2.344467 4.484113 6.737284
Si 9.450813 7.442012 2.790107
Si 8.453396 10.304471 3.516861
Si 7.787195 1.771933 7.625354
Si 0.823755 6.639272 5.360649
Si 0.653328 3.317678 5.150132
Si 7.563422 3.398386 5.351211
Si 3.778268 3.570896 3.053901
Si 2.878749 7.843600 10.440095
Si 7.797268 4.939595 2.283101
Si 3.589589 2.759687 0.405409
Si 0.675293 8.253875 10.366116
64
Step 1940
Si 9.129247 9.378591 9.395256
Si 7.549286 10.759219 9.019042
Si 5.484854 1.676027 2.595227
Si 2.606034 5.371709 2.387961
Si 9.621076 4.459872 7.150615
Si 9.536293 6.754739 8.146020
Si 9.352058 3.471726 0.279727
Si 6.981967 4.516174 9.319029
Si 1.049805 7.018346 7.864576
Si 1.186400 9.507967 4.560886
Si 1.231496 2.609602 8.436224
Si 10.162631 4.797967 3.740951
Si 5.947795 8.250797 0.860897
Si 0.739871 4.839271 1.445353
Si 4.533187 6.942805 3.005597
Si 6.841169 5.885333 6.819109
Si 5.287313 3.858095 7.402542
Si 7.589593 10.637625 1.243178
Si 5.351476 1.821018 5.268592
Si 10.293160 6.787977 0.219299
Si 2.793130 5.184635 10.255496
Si 3.790596 8.924309 5.959380
Si 4.646395 6.201505 8.634955
Si 10.856506 2.462179 1.965351
Si 0.284330 10.488167 7.862474
Si 8.215730 6.442690 10.670999
Si 1.998025 1.409786 3.522656
Si 8.645239 9.561980 6.653260
Si 3.296208 8.939115 3.752167
Si 2.744296 1.985315 6.029776
Si 6.623925 10.240919 5.271474
Si 10.788285 9.762628 1.720968
Si 2.901225 0.092453 7.229143
Si 0.594897 4.642076 9.181575
Si 6.950271 8.122566 3.266805
Si 10.633629 0.552017 4.138880
Si 3.367597 6.944534 6.820136
Si 3.745127 10.289396 9.531764
Si 5.089002 6.216769 0.777881
Si 9.999267 8.282616 4.955278
Si 6.317702 5.456952 4.260165
Si 6.800517 7.839680 8.490583
Si 4.771892 10.191608 2.514126
Si 1.625487 1.820054 10.460790
Si 7.584767 2.317970 3.274697
Si 5.454954 1.828913 9.736816
Si 10.286429 1.681373 6.607466
Si 9.580543 0.489068 0.549091
Si 5.735951 10.115860 7.316023
Si 7.355578 2.088221 0.403212
Si 2.568661 10.494173 1.044646
Si 6.073404 4.126194 1.173412
Si 2.365932 4.593761 6.640093
Si 9.376874 7.460029 2.750127
Si 8.512188 10.171577 3.581744
Si 7.698666 1.822055 7.674336
Si 0.842689 6.558956 5.544287
Si 0.600731 3.344189 5.180860
Si 7.450907 3.446656 5.507993
Si 3.723604 3.626107 3.177957
Si 3.024895 7.764430 10.463722
Si 7.848142 4.909804 2.252992
Si 3.674289 2.773118 0.495705
Si 0.732822 8.296726 10.260643
64
Step 1950
Si 9.092340 9.102276 9.455290
Si 7.572029 10.700345 8.917562
Si 5.495672 1.594954 2.662671
Si 2.604400 5.278210 2.362629
Si 9.628628 4.524644 7.201855
Si 9.592480 6.802299 8.220368
Si 9.426996 3.487094 0.130506
Si 7.011199 4.412404 9.408833
Si 0.989353 7.037524 7.918325
Si 1.095191 9.539721 4.701805
Si 1.245142 2.552918 8.352604
Si 10.281140 4.845146 3.853643
Si 6.036615 8.268706 0.751633
Si 0.636331 4.825808 1.524971
Si 4.474497 6.880198 3.113076
Si 6.898575 5.839032 6.907401
Si 5.319382 3.970686 7.366200
Si 7.514169 10.508828 1.347479
Si 5.197931 1.972465 5.173550
Si 10.354615 6.892904 0.298176
Si 2.684294 5.257820 10.355561
Si 3.706995 9.036368 6.020745
Si 4.796532 6.382046 8.654977
Si 0.066644 2.419880 1.971767
Si 0.373816 10.415795 7.542738
Si 8.059438 6.371220 10.637299
Si 2.010397 1.315701 3.651335
Si 8.538143 9.623053 6.616540
Si 3.331871 8.827662 3.704192
Si 2.754903 1.896057 6.047949
Si 6.514464 10.223861 5.219710
Si 10.681746 9.833471 1.830282
Si 2.909548 0.103867 7.137825
Si 0.531954 4.721722 8.980072
Si 6.982975 8.122072 3.091749
Si 10.576353 0.567793 4.169334
Si 3.450664 6.843339 6.938596
Si 3.727886 10.163576 9.394149
Si 5.057702 6.177347 0.808477
Si 9.976562 8.363437 4.879066
Si 6.344782 5.470280 4.261230
Si 6.845549 7.849889 8.359373
Si 4.882746 10.123850 2.676149
Si 1.592158 1.806058 10.381019
Si 7.705438 2.453717 3.311445
Si 5.484526 1.768761 9.640062
Si 10.367138 1.821963 6.611388
Si 9.608482 0.473043 0.496686
Si 5.619082 10.026352 7.342523
Si 7.421117 2.033624 0.371668
Si 2.548340 10.485861 0.874271
Si 6.117436 4.227719 1.194306
Si 2.425700 4.685139 6.561635
Si 9.339745 7.441427 2.710537
Si 8.549612 10.113814 3.644213
Si 7.577779 1.943422 7.713710
Si 0.758945 6.460747 5.661531
Si 0.517145 3.431075 5.233570
Si 7.341368 3.460450 5.698492
Si 3.692727 3.643425 3.236777
Si 3.218117 7.761159 10.497009
Si 7.939631 4.916144 2.217683
Si 3.711911 2.792579 0.582463
Si 0.774966 8.415245 10.123310
64
Step 1960
Si 9.123236 8.844127 9.538865
Si 7.566869 10.726265 8.862933
Si 5.490201 1.520229 2.686972
Si 2.625210 5.200972 2.310021
Si 9.573489 4.562495 7.218242
Si 9.522665 6.885218 8.314004
Si 9.500624 3.575297 10.801649
Si 7.025579 4.248132 9.543066
Si 1.000762 7.129352 7.949597
Si 1.004882 9.574888 4.821960
Si 1.260679 2.484373 8.342479
Si 10.359756 4.922340 3.860816
Si 6.138685 8.316395 0.631769
Si 0.569914 4.866291 1.617701
Si 4.388614 6.789857 3.247878
Si 7.048896 5.849062 6.975314
Si 5.275780 3.968542 7.375389
Si 7.367281 10.356120 1.452291
Si 5.063248 2.137676 5.125759
Si 10.437677 6.924536 0.420124
Si 2.555110 5.274104 10.441774
Si 3.628189 9.074662 6.047417
Si 4.939974 6.545914 8.764982
Si 0.134572 2.319904 1.998274
Si 0.454865 10.328646 7.199557
Si 7.878104 6.322273 10.606222
Si 2.037245 1.321005 3.737780
Si 8.511269 9.675058 6.587747
Si 3.343752 8.698247 3.691044
Si 2.802075 1.870720 6.019827
Si 6.339475 10.239306 5.103828
Si 10.706269 9.827533 1.936795
Si 2.815819 0.058472 7.117738
Si 0.523988 4.708773 8.853505
Si 7.002107 8.106251 2.955844
Si 10.503324 0.685168 4.218732
Si 3.479156 6.808847 7.027026
Si 3.736737 10.113024 9.290260
Si 5.052816 6.125646 0.830150
Si 9.953595 8.352373 4.839573
Si 6.390538 5.495975 4.226624
Si 6.905865 7.866473 8.236347
Si 5.036714 10.100919 2.794894
Si 1.565540 1.765616 10.316468
Si 7.894304 2.571985 3.336901
Si 5.484951 1.671291 9.507637
Si 10.425678 1.924065 6.639418
Si 9.692361 0.463789 0.363358
Si 5.536669 9.932217 7.420759
Si 7.425870 2.003407 0.352624
Si 2.496885 10.465208 0.694594
Si 6.130455 4.323172 1.267253
Si 2.505075 4.722126 6.502805
Si 9.326038 7.381547 2.640219
Si 8.541502 10.152798 3.684361
Si 7.472351 2.120548 7.762542
Si 0.617746 6.372134 5.726354
Si 0.471956 3.491712 5.267275
Si 7.240633 3.437048 5.826075
Si 3.680240 3.562079 3.229893
Si 3.405219 7.850227 10.531165
Si 7.995567 4.877530 2.201604
Si 3.751345 2.824043 0.656543
Si 0.848027 8.593991 10.033369
64
Step 1970
Si 9.163012 8.718197 9.683163
Si 7.600390 10.777157 8.830507
Si 5.528818 1.466773 2.671476
Si 2.577680 5.173585 2.235985
Si 9.465861 4.585721 7.221308
Si 9.438075 6.928345 8.392174
Si 9.614233 3.680516 10.625013
Si 7.028388 4.085769 9.628469
Si 1.071213 7.256739 7.954725
Si 0.964042 9.637989 4.906389
Si 1.263324 2.440980 8.336635
Si 10.421591 5.020072 3.774037
Si 6.227849 8.356770 0.480587
Si 0.505651 4.894730 1.748137
Si 4.305108 6.680293 3.392286
Si 7.234268 5.858301 6.999238
Si 5.108187 3.959642 7.442508
Si 7.247358 10.294241 1.495520
Si 4.952672 2.283232 5.121407
Si 10.514607 6.920421 0.565624
Si 2.449457 5.274415 10.485447
Si 3.539058 8.963641 6.009468
Si 5.037287 6.646436 8.941550
Si 0.188488 2.221527 2.016230
Si 0.493598 10.227323 6.859425
Si 7.711600 6.275076 10.578800
Si 2.090099 1.371978 3.811204
Si 8.554722 9.724116 6.560108
Si 3.362264 8.596064 3.688554
Si 2.856666 1.974623 5.929075
Si 6.153001 10.306186 4.984482
Si 10.785365 9.774322 2.014191
Si 2.631447 10.846489 7.185068
Si 0.581275 4.603711 8.817327
Si 7.011920 7.971265 2.895232
Si 10.379582 0.856022 4.259073
Si 3.470407 6.844758 7.082237
Si 3.733921 10.149384 9.249396
Si 5.006947 6.128205 0.825445
Si 9.900253 8.240593 4.830712
Si 6.444579 5.565208 4.205766
Si 6.922450 7.918742 8.078591
Si 5.124575 10.073510 2.916743
Si 1.540509 1.684095 10.358781
Si 8.084135 2.618056 3.346636
Si 5.430114 1.583673 9.392885
Si 10.472887 1.954817 6.720784
Si 9.798553 0.466050 0.177839
Si 5.538426 9.835544 7.521897
Si 7.405059 1.989080 0.420228
Si 2.391036 10.458621 0.502482
Si 6.134795 4.267353 1.337437
Si 2.610490 4.691153 6.467804
Si 9.353886 7.331334 2.603482
Si 8.515122 10.295261 3.736887
Si 7.428113 2.325671 7.809728
Si 0.436354 6.328296 5.744224
Si 0.506959 3.498391 5.230804
Si 7.186043 3.367319 5.840887
Si 3.695964 3.400496 3.195871
Si 3.566879 7.959547 10.569442
Si 8.042135 4.838386 2.216759
Si 3.783631 2.859900 0.665566
Si 1.001636 8.843881 9.994250
64
Step 1980
Si 9.192520 8.722982 9.891480
Si 7.668730 0.004260 8.806048
Si 5.623337 1.475712 2.646459
Si 2.592306 5.164169 2.177514
Si 9.365527 4.603521 7.210607
Si 9.449454 6.896232 8.422888
Si 9.685620 3.769185 10.521373
Si 7.046812 3.972524 9.637816
Si 1.162289 7.380465 7.976139
Si 0.888656 9.681793 4.835258
Si 1.294170 2.388956 8.313506
Si 10.443883 5.127083 3.749410
Si 6.339641 8.385040 0.273264
Si 0.387777 4.857046 1.801276
Si 4.243735 6.552038 3.519942
Si 7.358926 5.839193 6.975147
Si 4.883309 4.011079 7.554666
Si 7.226002 10.339320 1.452930
Si 4.883924 2.394004 5.115106
Si 10.580495 6.941916 0.688925
Si 2.392781 5.289042 10.495197
Si 3.510448 8.813003 5.952599
Si 5.113343 6.684265 9.035065
Si 0.193214 2.143327 1.969860
Si 0.480757 10.137785 6.636287
Si 7.607107 6.222714 10.592039
Si 2.117849 1.426745 3.878392
Si 8.612626 9.764962 6.559725
Si 3.412517 8.515197 3.690046
Si 2.932553 2.078806 5.878110
Si 6.001116 10.371808 4.921400
Si 0.012768 9.690748 2.055001
Si 2.470923 10.811259 7.332922
Si 0.643422 4.515691 8.805199
Si 7.047873 7.784039 2.945501
Si 10.216473 1.072116 4.228534
Si 3.477879 6.893631 7.157888
Si 3.769403 10.247151 9.182826
Si 4.881309 6.073085 0.815250
Si 9.824257 8.096089 4.802759
Si 6.544855 5.620330 4.225396
Si 6.866137 7.960100 7.929911
Si 5.134570 10.015184 3.062643
Si 1.521587 1.594841 10.491196
Si 8.259883 2.640117 3.336947
Si 5.338224 1.481659 9.299169
Si 10.462138 1.946257 6.838728
Si 9.857516 0.561320 0.010287
Si 5.571216 9.767610 7.598839
Si 7.433959 1.874115 0.518505
Si 2.223846 10.497892 0.342234
Si 6.136273 4.108620 1.429055
Si 2.719616 4.637525 6.473541
Si 9.386130 7.333562 2.603298
Si 8.451234 10.483696 3.784159
Si 7.494233 2.471979 7.862786
Si 0.221638 6.328484 5.791690
Si 0.552835 3.464019 5.144216
Si 7.137500 3.312800 5.746537
Si 3.678292 3.242634 3.153995
Si 3.682546 8.055216 10.624179
Si 8.059464 4.778860 2.226849
Si 3.816402 2.905995 0.600636
Si 1.136184 9.087200 9.984833
64
Step 1990
Si 9.177886 8.758731 10.132524
Si 7.795118 0.116760 8.779948
Si 5.726886 1.545272 2.608714
Si 2.642694 5.146017 2.176218
Si 9.364843 4.578781 7.172420
Si 9.528815 6.870223 8.458293
Si 9.694222 3.825881 10.558705
Si 7.049402 3.852136 9.625253
Si 1.257564 7.410853 8.032948
Si 0.821924 9.685733 4.631685
Si 1.378634 2.332266 8.277941
Si 10.430814 5.207681 3.910948
Si 6.530859 8.436249 0.062962
Si 0.291564 4.740322 1.676902
Si 4.230173 6.375159 3.596886
Si 7.367057 5.759178 6.923362
Si 4.778955 4.049810 7.691756
Si 7.277660 10.360645 1.413240
Si 4.969649 2.519300 5.139936
Si 10.666529 7.023356 0.713712
Si 2.341094 5.308677 10.446484
Si 3.526260 8.749292 5.940660
Si 5.197898 6.661458 9.005978
Si 0.163660 2.090970 1.877332
Si 0.435520 10.114342 6.498631
Si 7.622518 6.172668 10.607625
Si 2.072781 1.439445 3.883009
Si 8.609224 9.791843 6.583715
Si 3.441853 8.454282 3.689552
Si 2.958403 2.094347 5.968117
Si 5.952579 10.444436 5.059574
Si 0.081586 9.615663 2.077630
Si 2.346589 10.796193 7.469186
Si 0.689667 4.524368 8.765388
Si 7.032819 7.629173 2.974218
Si 10.047162 1.293313 4.144612
Si 3.443798 6.869078 7.286571
Si 3.880668 10.355686 9.090500
Si 4.770541 5.984796 0.880219
Si 9.750494 8.008725 4.767713
Si 6.666037 5.648175 4.275332
Si 6.805046 7.980597 7.804519
Si 5.068251 9.897075 3.087779
Si 1.483027 1.586710 10.670938
Si 8.422550 2.627393 3.305813
Si 5.230647 1.451546 9.264752
Si 10.385942 1.919044 6.944512
Si 9.854877 0.714990 10.739970
Si 5.616230 9.754571 7.624194
Si 7.531569 1.725654 0.592775
Si 2.076018 10.592676 0.297633
Si 6.101727 3.941828 1.527256
Si 2.767770 4.652777 6.540576
Si 9.362170 7.391929 2.648977
Si 8.357569 10.630311 3.806564
Si 7.596593 2.580152 7.887179
Si 0.006834 6.339945 5.878147
Si 0.539461 3.474053 5.049979
Si 7.064947 3.289839 5.584309
Si 3.658898 3.138093 3.053820
Si 3.745866 8.135318 10.665812
Si 8.065828 4.731590 2.197297
Si 3.832265 2.949052 0.449642
Si 1.135527 9.161571 9.947145
64
Step 2000
Si 9.149284 8.815250 10.378174
Si 7.932570 0.253522 8.761946
Si 5.796454 1.589471 2.634595
Si 2.687304 5.093942 2.201058
Si 9.440441 4.524913 7.128301
Si 9.610579 6.870519 8.535792
Si 9.673548 3.882433 10.638390
Si 7.039140 3.693446 9.624520
Si 1.313091 7.355846 8.068291
Si 0.836601 9.668898 4.304616
Si 1.472738 2.259460 8.268360
Si 10.412445 5.239526 4.025981
Si 6.704670 8.504450 10.763056
Si 0.212744 4.600266 1.521961
Si 4.291279 6.180068 3.633660
Si 7.295193 5.677922 6.852833
Si 4.787519 4.047723 7.855619
Si 7.347059 10.288691 1.438397
Si 5.109152 2.626551 5.182621
Si 10.773816 7.144575 0.663276
Si 2.274059 5.327669 10.380666
Si 3.511781 8.728147 5.996838
Si 5.253278 6.605406 8.932684
Si 0.139717 2.070031 1.780321
Si 0.365095 10.176872 6.463040
Si 7.679158 6.084947 10.585963
Si 1.989228 1.431597 3.877865
Si 8.565198 9.839940 6.572352
Si 3.433817 8.421925 3.690429
Si 2.937698 2.053630 6.125325
Si 5.960218 10.526888 5.282217
Si 0.128883 9.558000 2.067097
Si 2.195425 10.802369 7.571586
Si 0.722412 4.598237 8.693815
Si 6.918777 7.522937 2.907956
Si 9.966166 1.484927 4.103498
Si 3.375142 6.789409 7.426110
Si 4.033663 10.448809 9.027207
Si 4.727464 5.933365 0.942587
Si 9.682319 8.064614 4.755616
Si 6.763350 5.659042 4.341885
Si 6.821002 7.921787 7.714600
Si 5.007309 9.736603 3.039403
Si 1.419194 1.773884 10.790338
Si 8.514047 2.659408 3.265607
Si 5.187153 1.558688 9.273974
Si 10.281554 1.860719 7.022409
Si 9.790725 0.863846 10.620196
Si 5.661203 9.817406 7.583782
Si 7.687911 1.592572 0.571141
Si 2.053895 10.552664 0.401829
Si 6.064671 3.815919 1.576808
Si 2.745048 4.727690 6.653241
Si 9.314169 7.462003 2.666997
Si 8.228304 10.653502 3.851183
Si 7.675040 2.648857 7.900917
Si 10.699908 6.354642 6.065022
Si 0.533335 3.440947 4.999941
Si 7.012320 3.293381 5.395964
Si 3.605006 3.060331 2.931229
Si 3.832494 8.194788 10.698740
Si 8.092649 4.741201 2.172672
Si 3.807706 3.018123 0.235585
Si 1.040896 9.112801 9.869906
64
Step 2010
Si 9.173023 8.931884 10.590933
Si 8.060642 0.360041 8.755836
Si 5.872107 1.562927 2.719093
Si 2.687645 4.992498 2.238055
Si 9.539904 4.421074 7.077094
Si 9.628117 6.901018 8.711680
Si 9.599447 3.935934 10.691952
Si 6.961205 3.620064 9.709650
Si 1.298718 7.307854 8.121990
Si 0.878709 9.688781 3.949873
Si 1.523740 2.210262 8.306535
Si 10.393363 5.252783 4.045643
Si 6.804230 8.546870 10.636957
Si 0.156632 4.509702 1.406998
Si 4.386474 6.029459 3.698294
Si 7.168019 5.585960 6.823452
Si 4.880363 3.987929 7.993248
Si 7.374101 10.170308 1.526721
Si 5.078844 2.697391 5.246802
Si 0.047255 7.238118 0.579859
Si 2.205205 5.362758 10.322482
Si 3.510979 8.753219 6.066016
Si 5.305469 6.528467 8.908599
Si 0.146363 2.022650 1.733646
Si 0.227051 10.229683 6.462477
Si 7.723084 5.960205 10.513932
Si 1.912250 1.417478 3.866669
Si 8.562778 9.890942 6.531194
Si 3.400381 8.361309 3.734022
Si 2.915054 2.020675 6.286182
Si 5.987616 10.592630 5.454672
Si 0.177070 9.537441 2.005990
Si 2.125148 10.726993 7.682171
Si 0.746197 4.671794 8.624119
Si 6.790160 7.521701 2.784593
Si 10.002694 1.586362 4.129126
Si 3.320833 6.776957 7.529486
Si 4.131755 10.508428 9.008786
Si 4.768743 5.933763 0.885847
Si 9.614040 8.244365 4.783319
Si 6.821299 5.692079 4.384009
Si 6.903960 7.817538 7.646371
Si 5.013227 9.573882 2.995388
Si 1.425747 1.959260 10.842288
Si 8.428961 2.753396 3.190872
Si 5.173080 1.756343 9.291125
Si 10.141666 1.807632 7.086096
Si 9.722092 0.993330 10.474763
Si 5.697650 9.889496 7.523775
Si 7.859117 1.467162 0.564532
Si 2.065270 10.439495 0.542023
Si 6.015959 3.716440 1.545122
Si 2.674163 4.747834 6.748563
Si 9.211336 7.498002 2.659698
Si 8.066130 10.560388 3.933980
Si 7.746784 2.663065 7.823954
Si 10.567041 6.407246 6.218329
Si 0.579997 3.373998 5.019860
Si 7.157544 3.350703 5.226339
Si 3.524832 2.969244 2.829500
Si 3.940651 8.285694 10.719822
Si 8.192783 4.822618 2.142984
Si 3.747971 3.097711 10.838371
Si 0.959343 9.066760 9.778230
64
Step 2020
Si 9.231562 9.079312 10.756758
Si 8.154552 0.359906 8.723847
Si 5.949693 1.492161 2.835793
Si 2.663354 4.923203 2.258213
Si 9.653605 4.324382 7.025175
Si 9.568764 6.955556 8.971063
Si 9.463798 3.966963 10.637009
Si 6.941764 3.538468 9.813424
Si 1.231607 7.305766 8.194430
Si 0.952592 9.794294 3.770877
Si 1.512671 2.205876 8.377840
Si 10.390174 5.278544 4.021612
Si 6.796723 8.510028 10.478350
Si 0.181147 4.493391 1.363260
Si 4.439470 5.914347 3.750895
Si 7.021090 5.465947 6.838012
Si 4.953394 3.936265 8.061651
Si 7.368636 10.053781 1.665453
Si 4.959516 2.708592 5.294117
Si 0.215558 7.250402 0.497891
Si 2.117784 5.393375 10.346134
Si 3.549184 8.798343 6.118369
Si 5.317936 6.479068 8.941714
Si 0.172261 1.930163 1.765583
Si 0.067589 10.292003 6.415772
Si 7.765606 5.874687 10.425264
Si 1.882310 1.389019 3.841940
Si 8.578027 9.951987 6.550293
Si 3.327424 8.257224 3.856002
Si 2.938855 2.027428 6.422929
Si 5.921348 10.653900 5.542884
Si 0.177075 9.541751 1.809163
Si 2.114134 10.562305 7.804725
Si 0.765493 4.696618 8.583941
Si 6.651026 7.579921 2.612376
Si 10.066656 1.568834 4.196016
Si 3.343324 6.856283 7.570189
Si 4.191362 10.569598 9.034847
Si 4.853254 5.966347 0.759125
Si 9.564079 8.459342 4.828598
Si 6.875995 5.738146 4.409810
Si 7.029052 7.753009 7.618031
Si 5.106657 9.470063 2.975483
Si 1.553666 2.090078 10.854238
Si 8.263277 2.819150 3.088491
Si 5.139394 1.926160 9.326371
Si 10.032081 1.704281 7.119509
Si 9.687716 1.111594 10.296046
Si 5.784017 9.933673 7.468709
Si 7.934531 1.402179 0.651228
Si 2.081346 10.315433 0.657588
Si 5.920031 3.642618 1.459193
Si 2.601429 4.668586 6.799535
Si 9.103212 7.532428 2.620357
Si 7.912815 10.466845 3.992544
Si 7.775028 2.698428 7.742304
Si 10.430767 6.503384 6.292664
Si 0.648719 3.351202 5.110837
Si 7.354326 3.377742 5.052991
Si 3.487099 2.819547 2.777503
Si 4.102164 8.394170 10.732934
Si 8.300925 4.941026 2.128193
Si 3.652870 3.201807 10.583969
Si 0.930501 9.041061 9.649926
64
Step 2030
Si 9.271764 9.276435 0.004380
Si 8.197595 0.260894 8.694329
Si 5.984736 1.394766 3.014152
Si 2.644487 4.872283 2.244275
Si 9.760151 4.274333 6.953270
Si 9.452420 7.027242 9.216401
Si 9.363618 3.919361 10.548547
Si 7.011795 3.428652 9.975457
Si 1.105112 7.306027 8.260970
Si 1.035325 9.957765 3.696919
Si 1.451651 2.200577 8.493709
Si 10.390152 5.296243 3.979299
Si 6.770978 8.430042 10.292489
Si 0.258596 4.499854 1.370524
Si 4.483034 5.856649 3.765448
Si 6.887673 5.315634 6.859035
Si 4.991940 3.926341 8.012297
Si 7.390557 9.970442 1.805349
Si 4.847981 2.655553 5.261059
Si 0.413370 7.184761 0.459262
Si 2.062985 5.410897 10.420641
Si 3.584014 8.806025 6.184594
Si 5.251945 6.428020 8.984200
Si 0.181437 1.815049 1.823955
Si 10.826684 10.387573 6.336333
Si 7.787818 5.881656 10.354747
Si 1.897154 1.338256 3.800617
Si 8.585684 9.979875 6.637590
Si 3.264035 8.156126 4.009225
Si 2.983738 2.057037 6.518783
Si 5.788943 10.750198 5.467781
Si 0.148693 9.569187 1.604785
Si 2.114197 10.358405 7.937126
Si 0.758011 4.681165 8.601576
Si 6.470229 7.560299 2.388145
Si 10.075270 1.459182 4.282570
Si 3.422485 6.971283 7.558798
Si 4.243451 10.637085 9.076176
Si 4.930923 5.989736 0.664462
Si 9.538115 8.610106 4.826935
Si 6.931347 5.773515 4.392555
Si 7.199745 7.736374 7.619786
Si 5.199112 9.415910 3.026797
Si 1.734875 2.141683 10.816677
Si 8.114883 2.857051 2.960802
Si 5.047058 1.998881 9.380674
Si 10.028564 1.617851 7.135258
Si 9.702437 1.246961 10.105646
Si 5.889655 9.931758 7.504361
Si 7.946156 1.418713 0.804160
Si 2.113208 10.195303 0.734063
Si 5.798794 3.604189 1.321911
Si 2.550712 4.582068 6.822567
Si 9.022207 7.561111 2.565652
Si 7.781219 10.454751 4.023159
Si 7.741781 2.768966 7.621506
Si 10.298220 6.644071 6.349284
Si 0.727962 3.375977 5.228197
Si 7.510216 3.365287 4.969363
Si 3.501736 2.638801 2.750736
Si 4.287749 8.530197 10.758444
Si 8.370018 5.129985 2.126770
Si 3.493765 3.352352 10.427707
Si 0.963847 9.065219 9.475704
64
Step 2040
Si 9.273596 9.492402 0.035396
Si 8.184283 0.139647 8.713785
Si 5.912377 1.320704 3.175597
Si 2.704989 4.801442 2.220636
Si 9.812828 4.252342 6.830895
Si 9.350617 7.124980 9.420727
Si 9.367721 3.827996 10.445285
Si 7.101359 3.299443 10.170649
Si 0.995465 7.234027 8.280405
Si 1.117135 10.078107 3.638369
Si 1.344076 2.128278 8.631952
Si 10.370074 5.302659 3.932340
Si 6.777382 8.389528 10.133420
Si 0.305209 4.484714 1.430130
Si 4.546296 5.862242 3.730119
Si 6.779732 5.168426 6.875740
Si 5.004822 3.953123 7.851776
Si 7.487426 9.937612 1.864856
Si 4.789935 2.563318 5.225772
Si 0.586748 7.087316 0.436445
Si 2.036856 5.443766 10.491856
Si 3.639112 8.860820 6.306418
Si 5.144649 6.337456 8.996413
Si 0.161534 1.691830 1.847876
Si 10.831473 10.494456 6.236647
Si 7.758116 5.921800 10.320062
Si 1.956147 1.293291 3.779290
Si 8.519786 9.941368 6.759674
Si 3.231720 8.089764 4.112573
Si 2.991975 2.026733 6.564706
Si 5.593212 0.009727 5.365724
Si 0.077611 9.609595 1.507442
Si 2.138696 10.198360 8.025520
Si 0.699976 4.681768 8.681323
Si 6.219096 7.463889 2.151048
Si 10.000540 1.339394 4.338582
Si 3.477665 7.052302 7.544405
Si 4.288571 10.681132 9.105699
Si 4.968438 5.966329 0.658070
Si 9.550777 8.706128 4.750074
Si 7.001638 5.831140 4.332101
Si 7.423010 7.713024 7.619231
Si 5.159028 9.325524 3.122677
Si 1.875302 2.059359 10.790857
Si 8.007190 2.915289 2.784753
Si 4.909964 1.991241 9.426801
Si 10.116605 1.621528 7.175240
Si 9.782172 1.412000 9.956858
Si 5.943351 9.916759 7.593854
Si 7.964061 1.445610 0.959134
Si 2.191676 10.126567 0.748347
Si 5.681622 3.597568 1.184487
Si 2.553331 4.552300 6.829722
Si 8.988951 7.584675 2.541942
Si 7.777400 10.433260 4.091438
Si 7.711347 2.817923 7.516271
Si 10.148126 6.806899 6.411004
Si 0.801314 3.417545 5.326494
Si 7.641994 3.338298 4.978135
Si 3.564081 2.482995 2.743281
Si 4.463482 8.739344 10.792625
Si 8.399996 5.310122 2.079515
Si 3.358086 3.573611 10.374489
Si 1.022266 9.175196 9.341039
64
Step 2050
Si 9.294446 9.687152 0.016609
Si 8.136359 0.068724 8.827474
Si 5.793143 1.305451 3.270331
Si 2.842684 4.715605 2.230673
Si 9.807991 4.280316 6.703179
Si 9.367802 7.301471 9.609345
Si 9.466815 3.743211 10.342291
Si 7.131751 3.138945 10.318810
Si 0.924210 7.130685 8.255392
Si 1.202944 10.052553 3.609398
Si 1.213901 2.026513 8.716756
Si 10.359891 5.304045 3.950782
Si 6.780820 8.444681 9.996579
Si 0.295480 4.392917 1.498572
Si 4.604478 5.898377 3.683539
Si 6.699444 5.095985 6.881060
Si 4.990377 3.969638 7.669189
Si 7.613683 9.917892 1.865162
Si 4.803801 2.497508 5.231483
Si 0.689817 7.062171 0.395425
Si 2.045876 5.473028 10.490725
Si 3.666858 8.908404 6.456198
Si 5.055211 6.226329 8.962518
Si 0.098852 1.553806 1.809406
Si 0.062239 10.574786 6.135998
Si 7.672500 5.958643 10.307889
Si 2.018434 1.328378 3.808946
Si 8.429165 9.826480 6.828884
Si 3.212043 8.103555 4.203066
Si 2.937187 1.918124 6.591261
Si 5.364723 0.099596 5.308243
Si 10.838737 9.648803 1.459930
Si 2.260136 10.179720 7.925310
Si 0.622642 4.655730 8.774480
Si 5.961416 7.357546 1.913166
Si 9.868152 1.258848 4.330536
Si 3.491848 7.098825 7.527050
Si 4.330061 10.692673 9.119536
Si 4.937753 5.931662 0.698537
Si 9.621186 8.784327 4.659774
Si 7.036043 5.893974 4.283676
Si 7.674866 7.607620 7.597430
Si 5.042338 9.212472 3.217533
Si 1.955111 1.889742 10.840083
Si 7.928564 2.969891 2.617954
Si 4.785101 2.013367 9.499522
Si 10.274734 1.678590 7.233412
Si 9.903847 1.590633 9.869254
Si 5.898048 9.897393 7.698638
Si 8.017242 1.446343 1.126586
Si 2.297247 10.108643 0.735182
Si 5.617865 3.542856 1.084527
Si 2.576956 4.579263 6.880430
Si 9.007158 7.624458 2.512154
Si 7.863047 10.411970 4.218285
Si 7.688541 2.824147 7.493008
Si 9.961644 6.952029 6.460007
Si 0.857919 3.456508 5.313554
Si 7.761265 3.296745 4.978743
Si 3.661307 2.366407 2.701756
Si 4.625381 8.967508 10.851355
Si 8.401826 5.448940 1.981414
Si 3.297821 3.821805 10.358158
Si 0.935285 9.231584 9.371826
64
Step 2060
Si 9.242253 9.833118 10.739446
Si 8.113087 0.053828 8.970330
Si 5.743226 1.288298 3.202140
Si 2.959405 4.593773 2.291926
Si 9.787344 4.400495 6.591463
Si 9.490833 7.489492 9.783748
Si 9.592180 3.758856 10.260735
Si 7.150710 2.986582 10.358468
Si 0.919817 7.027535 8.194053
Si 1.283727 9.960455 3.625134
Si 1.169018 1.915365 8.752489
Si 10.372459 5.333122 4.034494
Si 6.755922 8.555254 9.899557
Si 0.243978 4.253758 1.587401
Si 4.642082 5.982402 3.667064
Si 6.687281 5.113586 6.863202
Si 4.922205 3.943131 7.494733
Si 7.673690 9.848380 1.907224
Si 4.833822 2.547881 5.327449
Si 0.723267 7.125984 0.367637
Si 1.995215 5.576775 10.439954
Si 3.683875 8.984375 6.551237
Si 5.028500 6.150606 8.997513
Si 0.034763 1.427295 1.759292
Si 0.187986 10.647292 6.026316
Si 7.539664 5.948393 10.330944
Si 2.026368 1.418109 3.903162
Si 8.352130 9.697945 6.899172
Si 3.213290 8.116224 4.299641
Si 2.839840 1.778863 6.597450
Si 5.124567 0.077880 5.330915
Si 10.788551 9.649534 1.485859
Si 2.428167 10.270055 7.780845
Si 0.508269 4.595495 8.829826
Si 5.774519 7.345111 1.747675
Si 9.741666 1.241039 4.279830
Si 3.417919 7.054780 7.532428
Si 4.311927 10.679830 9.185689
Si 4.916702 5.885132 0.668427
Si 9.743024 8.830381 4.553260
Si 7.021694 5.934456 4.233966
Si 7.921843 7.415375 7.531523
Si 4.968550 9.137675 3.262539
Si 2.070186 1.707438 0.123783
Si 7.845950 3.110210 2.580224
Si 4.663262 2.060818 9.562784
Si 10.389184 1.715473 7.227690
Si 9.991080 1.701811 9.842173
Si 5.812597 9.874018 7.740048
Si 8.113805 1.371164 1.261718
Si 2.426720 10.106040 0.696962
Si 5.498523 3.449936 1.081378
Si 2.615100 4.632876 6.959792
Si 9.065937 7.710638 2.470975
Si 7.937216 10.406261 4.315612
Si 7.679756 2.769308 7.569659
Si 9.767780 7.024174 6.476751
Si 0.916218 3.448061 5.221774
Si 7.849864 3.243374 4.932216
Si 3.754165 2.287217 2.594660
Si 4.745651 9.226685 0.046708
Si 8.413957 5.522653 1.834363
Si 3.337129 3.957667 10.314756
Si 0.814596 9.246257 9.445800
64
Step 2070
Si 9.172215 9.965954 10.559242
Si 8.121482 0.124013 9.054112
Si 5.780974 1.156429 3.090603
Si 3.009853 4.465554 2.353896
Si 9.721087 4.533239 6.496326
Si 9.577596 7.635624 9.948003
Si 9.676572 3.957602 10.235172
Si 7.176149 2.853808 10.323106
Si 0.913707 6.961009 8.012247
Si 1.383570 9.882323 3.633760
Si 1.252343 1.801771 8.820986
Si 10.407857 5.399162 4.084516
Si 6.728153 8.593377 9.822081
Si 0.218411 4.105350 1.659172
Si 4.655781 6.088632 3.685701
Si 6.737403 5.180635 6.806333
Si 4.810201 3.865268 7.347158
Si 7.616810 9.779222 2.042039
Si 4.891480 2.659738 5.440312
Si 0.700778 7.193920 0.411227
Si 1.867574 5.703156 10.462767
Si 3.679251 9.022386 6.552055
Si 5.035998 6.125014 9.016718
Si 10.833359 1.320219 1.777532
Si 0.327879 10.719004 5.928520
Si 7.438084 5.892541 10.343694
Si 1.990460 1.512247 4.017541
Si 8.267204 9.619019 6.981150
Si 3.183878 8.112410 4.398357
Si 2.746865 1.640894 6.610637
Si 4.915679 0.027760 5.361911
Si 10.790594 9.651790 1.525850
Si 2.544278 10.404621 7.672990
Si 0.380483 4.545463 8.860297
Si 5.709956 7.444222 1.719835
Si 9.628947 1.310647 4.195045
Si 3.318746 6.912052 7.594783
Si 4.199739 10.747289 9.304645
Si 4.876685 5.760279 0.556868
Si 9.869195 8.796880 4.438219
Si 6.978191 5.961024 4.162960
Si 8.072825 7.212507 7.517918
Si 4.967377 9.123984 3.223438
Si 2.222720 1.518174 0.337975
Si 7.762733 3.280766 2.612408
Si 4.534079 2.111271 9.557676
Si 10.370696 1.751722 7.052539
Si 10.020814 1.701296 9.894621
Si 5.819087 9.803250 7.713444
Si 8.250014 1.255049 1.414468
Si 2.547244 10.111638 0.639880
Si 5.412089 3.378610 1.133583
Si 2.628058 4.705092 7.048223
Si 9.145138 7.757954 2.483725
Si 7.948702 10.442105 4.363396
Si 7.731974 2.677894 7.672022
Si 9.711569 7.018290 6.394612
Si 0.972040 3.403874 5.118903
Si 7.902733 3.194499 4.897645
Si 3.790950 2.216210 2.484365
Si 4.860933 9.489791 0.146138
Si 8.450396 5.570471 1.710334
Si 3.415589 3.982486 10.206049
Si 0.772779 9.307511 9.514260
64
Step 2080
Si 9.095708 10.011599 10.474171
Si 8.058922 0.274430 8.978947
Si 5.868657 0.926797 3.049346
Si 2.995094 4.411021 2.419286
Si 9.645935 4.630163 6.425426
Si 9.539203 7.687285 10.046133
Si 9.717561 4.178928 10.242301
Si 7.208907 2.751445 10.249987
Si 0.866884 6.938643 7.812549
Si 1.528316 9.811097 3.632490
Si 1.367899 1.731937 8.939287
Si 10.426995 5.442764 4.055900
Si 6.654454 8.553501 9.775176
Si 0.228887 3.998759 1.737226
Si 4.628058 6.144290 3.690380
Si 6.867334 5.298136 6.748375
Si 4.691210 3.789307 7.254513
Si 7.470826 9.699094 2.181479
Si 4.961811 2.700049 5.463558
Si 0.624578 7.301663 0.562392
Si 1.752870 5.740120 10.498295
Si 3.657054 8.913598 6.482169
Si 5.074734 6.151004 8.989156
Si 0.002509 1.242324 1.868769
Si 0.475090 10.797563 5.832463
Si 7.370507 5.795895 10.374530
Si 1.921627 1.583060 4.067924
Si 8.206850 9.537988 7.058098
Si 3.136861 8.140708 4.478589
Si 2.655968 1.604864 6.585135
Si 4.746740 0.051894 5.317337
Si 10.836792 9.669577 1.561105
Si 2.526066 10.511957 7.637685
Si 0.309020 4.531034 8.825723
Si 5.702757 7.569585 1.719798
Si 9.534448 1.416823 4.092624
Si 3.233859 6.773331 7.680795
Si 4.124641 10.808087 9.368662
Si 4.859658 5.665490 0.485923
Si 9.977057 8.716463 4.424711
Si 6.981974 5.959275 4.027501
Si 8.058828 7.043454 7.645326
Si 4.993849 9.165112 3.140034
Si 2.352506 1.369269 0.600861
Si 7.625315 3.439162 2.628672
Si 4.443266 2.178224 9.490097
Si 10.326989 1.823862 6.785912
Si 10.054501 1.716920 9.990707
Si 5.884623 9.744120 7.724922
Si 8.380232 1.156045 1.584450
Si 2.583842 10.086154 0.622943
Si 5.438256 3.335822 1.208939
Si 2.598598 4.694543 7.095601
Si 9.244635 7.722919 2.494380
Si 7.930985 10.482417 4.417005
Si 7.820265 2.600050 7.791702
Si 9.856688 7.001706 6.185756
Si 0.992214 3.388854 5.043023
Si 7.912580 3.156772 4.926472
Si 3.740465 2.095298 2.427134
Si 5.026241 9.714837 0.310834
Si 8.505525 5.641028 1.637787
Si 3.418177 4.003514 10.049417
Si 0.861107 9.424359 9.528096
64
Step 2090
Si 9.001460 9.976375 10.487462
Si 7.959890 0.471607 8.824253
Si 5.925903 0.758397 3.055414
Si 2.952506 4.447635 2.474158
Si 9.531472 4.600444 6.354018
Si 9.434190 7.671975 10.099967
Si 9.727465 4.360507 10.269819
Si 7.206601 2.668646 10.219688
Si 0.782246 6.947267 7.705833
Si 1.676770 9.749522 3.630929
Si 1.465995 1.748230 9.130289
Si 10.407905 5.435167 3.948500
Si 6.624098 8.450785 9.754028
Si 0.286231 3.977114 1.821659
Si 4.545725 6.162154 3.654421
Si 7.005791 5.352072 6.661859
Si 4.649434 3.799893 7.323247
Si 7.407287 9.573363 2.250709
Si 5.075722 2.636168 5.306449
Si 0.505666 7.417844 0.733080
Si 1.628090 5.692575 10.532288
Si 3.640141 8.701334 6.458276
Si 5.125675 6.194231 8.884463
Si 0.140167 1.175691 1.970124
Si 0.572970 10.814670 5.718632
Si 7.340267 5.714191 10.365782
Si 1.885978 1.605868 4.048445
Si 8.150979 9.474632 7.057323
Si 3.091510 8.165663 4.518163
Si 2.606623 1.682971 6.543878
Si 4.627435 0.118550 5.258752
Si 0.039471 9.692983 1.572744
Si 2.459896 10.508145 7.645327
Si 0.288518 4.535797 8.767980
Si 5.704565 7.596883 1.666359
Si 9.480417 1.521608 4.028416
Si 3.183262 6.750985 7.771047
Si 4.118860 10.837317 9.313356
Si 4.841025 5.616382 0.504603
Si 10.063553 8.665563 4.498489
Si 7.033290 5.941901 3.883892
Si 8.031493 6.935955 7.862693
Si 4.962005 9.244257 3.142051
Si 2.454378 1.313275 0.827739
Si 7.441028 3.582673 2.636740
Si 4.438161 2.271013 9.418226
Si 10.275906 1.945101 6.555194
Si 10.065559 1.798189 10.099214
Si 5.903489 9.673620 7.738231
Si 8.457728 1.093106 1.681321
Si 2.535764 9.990291 0.642237
Si 5.517514 3.282895 1.277744
Si 2.537528 4.539865 7.066803
Si 9.342418 7.621960 2.493681
Si 7.941542 10.494252 4.557224
Si 7.972299 2.597963 7.818308
Si 10.009831 7.025336 6.000249
Si 0.954726 3.480994 4.984499
Si 7.859216 3.170931 5.048538
Si 3.642795 1.965601 2.407456
Si 5.253157 9.911581 0.505271
Si 8.597969 5.694945 1.569030
Si 3.322773 4.067492 9.886211
Si 1.009680 9.531588 9.513205
64
Step 2100
Si 8.918761 9.946980 10.539021
Si 7.876400 0.629203 8.682776
Si 5.931696 0.744624 3.064012
Si 2.892389 4.549231 2.477134
Si 9.432324 4.539194 6.344570
Si 9.375085 7.630857 10.130129
Si 9.704829 4.450587 10.308549
Si 7.160860 2.642277 10.231496
Si 0.684539 6.979956 7.708792
Si 1.789416 9.679011 3.590602
Si 1.543857 1.800726 9.360359
Si 10.447541 5.400419 3.783839
Si 6.599268 8.370227 9.756473
Si 0.364034 3.981150 1.886855
Si 4.415007 6.193653 3.639227
Si 7.062700 5.357564 6.582826
Si 4.753339 3.822593 7.362771
Si 7.520742 9.410991 2.284035
Si 5.233176 2.548525 5.123967
Si 0.391813 7.558021 0.829801
Si 1.531494 5.601604 10.589465
Si 3.650740 8.524852 6.555843
Si 5.191060 6.217874 8.703636
Si 0.310592 1.190089 2.061090
Si 0.583367 10.757312 5.574832
Si 7.293919 5.602471 10.338687
Si 1.873555 1.580271 4.004661
Si 8.095548 9.382679 6.988224
Si 3.060801 8.109794 4.421783
Si 2.625488 1.825828 6.526272
Si 4.508097 0.167549 5.289372
Si 0.111942 9.722861 1.600752
Si 2.402395 10.425429 7.664255
Si 0.302217 4.576119 8.644334
Si 5.723135 7.488706 1.548023
Si 9.457576 1.592401 4.017215
Si 3.093460 6.758151 7.866596
Si 4.193403 10.833791 9.228243
Si 4.782412 5.574646 0.553896
Si 10.143908 8.712398 4.578717
Si 7.044678 5.918402 3.762127
Si 8.019864 6.909095 8.098421
Si 4.823216 9.284059 3.250569
Si 2.489365 1.251700 0.898210
Si 7.241336 3.702072 2.647641
Si 4.503686 2.289501 9.351376
Si 10.240998 2.074852 6.364304
Si 10.048035 1.911000 10.237469
Si 5.875859 9.602877 7.745684
Si 8.470512 1.055628 1.697548
Si 2.512102 9.850602 0.671025
Si 5.627458 3.225214 1.321829
Si 2.406471 4.391753 7.034177
Si 9.409234 7.533804 2.522890
Si 8.027828 10.445031 4.755466
Si 8.142708 2.671901 7.789800
Si 10.169340 7.050880 5.858977
Si 0.894289 3.674494 4.904423
Si 7.705633 3.196008 5.171744
Si 3.606661 1.849733 2.476330
Si 5.464436 10.143367 0.600238
Si 8.699128 5.721846 1.541607
Si 3.149360 4.206190 9.801092
Si 1.116925 9.605371 9.499906
64
Step 2110
Si 8.831097 9.950807 10.586823
Si 7.798551 0.673495 8.599636
Si 5.979498 0.821158 3.029967
Si 2.821930 4.614738 2.454884
Si 9.434368 4.623613 6.416098
Si 9.358610 7.576756 10.160081
Si 9.690722 4.509869 10.406204
Si 7.093260 2.633118 10.257562
Si 0.625638 7.001675 7.773802
Si 1.881394 9.616798 3.496210
Si 1.660026 1.855254 9.598101
Si 10.522456 5.384637 3.663592
Si 6.542175 8.352728 9.793732
Si 0.466329 3.993321 1.870042
Si 4.311017 6.236774 3.632359
Si 7.021816 5.388571 6.532183
Si 4.918323 3.857382 7.337477
Si 7.732012 9.239356 2.304576
Si 5.388809 2.482813 4.953546
Si 0.333297 7.662751 0.827115
Si 1.433429 5.541029 10.736803
Si 3.666960 8.390118 6.668429
Si 5.226352 6.223887 8.499081
Si 0.433790 1.279150 2.116964
Si 0.547881 10.722671 5.467423
Si 7.214576 5.455519 10.320461
Si 1.872439 1.572634 4.023674
Si 8.047250 9.277745 6.902586
Si 3.052629 7.973819 4.336960
Si 2.612677 1.974554 6.519416
Si 4.364400 0.179952 5.414831
Si 0.178072 9.798519 1.609564
Si 2.326415 10.342401 7.685770
Si 0.328956 4.609201 8.426492
Si 5.769528 7.328351 1.414987
Si 9.435522 1.639647 4.044345
Si 2.955652 6.762920 7.966588
Si 4.291166 10.817353 9.197932
Si 4.658709 5.473357 0.593771
Si 10.191261 8.808431 4.643308
Si 6.976714 5.935842 3.671813
Si 8.054845 6.902365 8.251185
Si 4.669059 9.287293 3.343902
Si 2.438394 1.174688 0.734803
Si 7.095185 3.759917 2.702214
Si 4.604206 2.263291 9.334381
Si 10.287294 2.172653 6.217066
Si 9.994869 1.985225 10.417769
Si 5.838436 9.542651 7.760947
Si 8.419147 1.052955 1.651443
Si 2.606528 9.691139 0.665708
Si 5.653000 3.156224 1.333521
Si 2.242366 4.269521 6.973654
Si 9.415164 7.498685 2.651777
Si 8.132611 10.367618 4.935892
Si 8.321914 2.781983 7.772350
Si 10.307385 7.003420 5.722903
Si 0.888620 3.860028 4.804669
Si 7.463955 3.184347 5.162070
Si 3.727191 1.844489 2.654113
Si 5.618106 10.375648 0.605510
Si 8.763257 5.685815 1.497140
Si 3.008328 4.338430 9.758292
Si 1.176441 9.664896 9.539489
64
Step 2120
Si 8.732082 9.996842 10.650299
Si 7.736762 0.654250 8.559519
Si 6.105079 0.808774 2.982830
Si 2.778319 4.657629 2.445143
Si 9.498751 4.821597 6.501361
Si 9.376576 7.532578 10.165645
Si 9.708611 4.556551 10.491438
Si 7.033995 2.620905 10.317552
Si 0.586792 7.020695 7.867236
Si 1.885914 9.556509 3.363159
Si 1.756845 1.932730 9.728331
Si 10.570166 5.395707 3.581635
Si 6.452478 8.371069 9.872744
Si 0.579718 3.973981 1.808069
Si 4.267411 6.242613 3.588463
Si 6.936006 5.453484 6.439941
Si 5.058360 3.883265 7.301960
Si 7.891675 9.119132 2.328562
Si 5.430424 2.384250 4.838335
Si 0.331394 7.748404 0.738076
Si 1.331538 5.507592 0.105408
Si 3.683468 8.290812 6.773742
Si 5.249637 6.192161 8.329204
Si 0.530488 1.422833 2.145790
Si 0.495875 10.713959 5.414147
Si 7.088253 5.290080 10.282118
Si 1.913187 1.581277 4.053891
Si 7.996990 9.153874 6.867378
Si 3.052823 7.761687 4.321622
Si 2.612937 2.073672 6.585389
Si 4.214799 0.136415 5.599684
Si 0.157550 9.951457 1.612457
Si 2.265001 10.340931 7.661490
Si 0.343418 4.670677 8.179368
Si 5.837802 7.257180 1.325297
Si 9.383351 1.622181 4.061817
Si 2.827635 6.779801 8.036251
Si 4.422692 10.792217 9.212201
Si 4.506958 5.323833 0.627068
Si 10.208784 8.922792 4.698427
Si 6.809724 5.998885 3.625129
Si 8.115097 6.894191 8.357169
Si 4.664523 9.329933 3.341095
Si 2.423450 1.100594 0.600683
Si 7.091770 3.836294 2.804612
Si 4.692817 2.250538 9.301634
Si 10.391733 2.210656 6.077355
Si 9.899363 2.003109 10.568505
Si 5.775417 9.505178 7.798193
Si 8.325332 1.056830 1.564650
Si 2.765341 9.534632 0.639795
Si 5.550820 3.065952 1.247966
Si 2.094226 4.187272 6.909192
Si 9.394975 7.558779 2.833051
Si 8.244167 10.329265 4.976644
Si 8.490297 2.839014 7.791810
Si 10.450603 6.900346 5.644502
Si 0.948769 4.012149 4.718090
Si 7.263877 3.164098 5.098017
Si 3.833619 1.942572 2.808072
Si 5.760817 10.520371 0.616783
Si 8.794325 5.568334 1.454003
Si 2.914989 4.439794 9.701874
Si 1.185415 9.680811 9.642116
64
Step 2130
Si 8.639523 10.046167 10.716248
Si 7.687826 0.593872 8.563699
Si 6.283896 0.690588 2.933722
Si 2.780541 4.683631 2.519619
Si 9.515466 5.062302 6.573192
Si 9.448235 7.475516 10.167277
Si 9.770133 4.598788 10.526929
Si 7.041171 2.599963 10.351158
Si 0.476584 7.056395 7.978803
Si 1.860340 9.531659 3.228709
Si 1.840520 2.030728 9.625240
Si 10.595639 5.415413 3.505580
Si 6.357180 8.366327 9.965804
Si 0.654809 3.900724 1.687229
Si 4.300532 6.186876 3.491482
Si 6.887780 5.514128 6.303193
Si 5.091074 3.835446 7.254545
Si 7.887887 9.087939 2.337541
Si 5.262366 2.167628 4.824025
Si 0.373678 7.857923 0.637329
Si 1.197914 5.538347 0.284957
Si 3.682771 8.270541 6.809943
Si 5.276205 6.144925 8.231780
Si 0.580845 1.579070 2.112749
Si 0.501131 10.719345 5.419573
Si 6.894776 5.143971 10.216622
Si 1.971859 1.558360 4.119971
Si 7.917571 9.017666 6.909169
Si 3.027576 7.589272 4.395231
Si 2.648446 2.097139 6.713323
Si 4.073082 0.067819 5.786198
Si 0.078666 10.116640 1.620205
Si 2.229025 10.445672 7.648623
Si 0.307716 4.736463 8.005336
Si 5.929799 7.285617 1.284896
Si 9.265139 1.614134 4.049131
Si 2.761850 6.780778 8.116584
Si 4.508330 10.797058 9.301787
Si 4.373894 5.170635 0.649146
Si 10.195961 9.040716 4.733015
Si 6.636356 6.102668 3.580486
Si 8.174762 6.893885 8.402020
Si 4.749198 9.381593 3.302740
Si 2.513159 0.984107 0.585562
Si 7.159927 3.944568 2.877113
Si 4.693218 2.243881 9.261769
Si 10.531854 2.220638 5.942615
Si 9.795191 2.004522 10.653612
Si 5.732279 9.512459 7.815411
Si 8.230838 1.028262 1.515496
Si 2.969105 9.385880 0.577512
Si 5.443506 2.976587 1.115168
Si 2.013987 4.123316 6.848400
Si 9.372179 7.656714 2.998198
Si 8.359516 10.287963 4.897882
Si 8.626770 2.839783 7.816525
Si 10.616273 6.806800 5.665066
Si 1.068024 4.108086 4.705590
Si 7.275573 3.192241 5.077703
Si 3.844638 2.113503 2.919742
Si 5.905348 10.597624 0.633621
Si 8.810686 5.426658 1.444202
Si 2.849827 4.485813 9.576241
Si 1.172060 9.712258 9.771752
64
Step 2140
Si 8.597011 10.035471 10.746438
Si 7.604927 0.526966 8.593713
Si 6.465880 0.545309 2.941316
Si 2.841838 4.702077 2.666555
Si 9.410247 5.219203 6.636498
Si 9.497127 7.418136 10.189347
Si 9.816707 4.671742 10.492352
Si 7.069815 2.531654 10.339868
Si 0.385413 7.182817 8.157550
Si 1.857015 9.563726 3.075868
Si 1.883996 2.117788 9.462612
Si 10.590078 5.464780 3.409135
Si 6.295114 8.291318 10.006001
Si 0.681657 3.710603 1.602267
Si 4.362564 6.059462 3.373311
Si 6.877298 5.554939 6.104995
Si 5.072217 3.708093 7.145170
Si 7.752347 9.073800 2.290106
Si 5.068162 1.952629 4.884654
Si 0.466332 7.971214 0.581882
Si 1.111669 5.705096 0.346605
Si 3.659009 8.282226 6.792684
Si 5.293282 6.117637 8.226552
Si 0.596646 1.692147 2.112518
Si 0.590909 10.746039 5.476776
Si 6.682047 5.064529 10.148506
Si 2.014196 1.478302 4.164484
Si 7.813581 8.906523 6.977206
Si 2.978471 7.528018 4.530044
Si 2.759403 2.024169 6.887108
Si 3.999056 10.803475 5.934850
Si 0.015698 10.297401 1.624462
Si 2.173505 10.570696 7.670254
Si 0.172371 4.719458 7.986001
Si 6.027274 7.377470 1.271808
Si 9.093239 1.612200 4.009387
Si 2.757117 6.744821 8.187557
Si 4.531000 10.802799 9.454623
Si 4.310802 5.022275 0.664230
Si 10.189322 9.086408 4.776429
Si 6.513596 6.236151 3.524727
Si 8.202403 6.879261 8.411383
Si 4.822202 9.431412 3.215241
Si 2.621510 0.875374 0.563209
Si 7.228131 4.058730 2.927479
Si 4.652741 2.233705 9.174101
Si 10.651625 2.239159 5.801056
Si 9.758655 2.032469 10.677645
Si 5.717910 9.561903 7.798483
Si 8.231376 1.009641 1.574403
Si 3.199983 9.239547 0.536803
Si 5.322668 2.903013 1.031509
Si 2.012163 4.171333 6.816010
Si 9.383962 7.729625 3.120744
Si 8.404061 10.278175 4.827528
Si 8.733154 2.795710 7.806955
Si 10.803544 6.798118 5.636080
Si 1.204528 4.183865 4.703169
Si 7.350291 3.217277 5.095407
Si 3.805599 2.314851 2.988861
Si 5.984846 10.605852 0.618465
Si 8.767052 5.284342 1.462469
Si 2.808407 4.528995 9.439976
Si 1.177263 9.816067 9.890560
64
Step 2150
Si 8.605511 9.954897 10.711209
Si 7.540122 0.508989 8.637050
Si 6.543689 0.465417 3.076123
Si 2.885421 4.655323 2.803175
Si 9.232797 5.333767 6.670893
Si 9.544459 7.402507 10.224008
Si 9.814834 4.715369 10.393126
Si 7.115506 2.449236 10.274725
Si 0.370194 7.358749 8.396369
Si 1.893590 9.596257 2.918042
Si 1.846718 2.139688 9.337301
Si 10.561177 5.521146 3.268266
Si 6.227379 8.163051 10.010960
Si 0.721892 3.610179 1.541848
Si 4.405984 5.993345 3.321034
Si 6.869309 5.598252 5.908846
Si 5.053534 3.585209 7.003458
Si 7.606065 8.982839 2.252937
Si 4.934078 1.763630 4.951692
Si 0.590244 8.067548 0.557404
Si 1.129939 5.928370 0.371944
Si 3.629980 8.313272 6.729906
Si 5.352551 6.109801 8.250645
Si 0.601132 1.642031 2.181890
Si 0.710898 10.792719 5.557536
Si 6.500637 5.072604 10.119226
Si 2.070864 1.344982 4.166740
Si 7.740157 8.825399 6.997261
Si 2.964220 7.537878 4.648210
Si 2.865590 1.963816 7.050752
Si 4.014791 10.644225 5.988027
Si 10.816480 10.481357 1.654990
Si 2.074940 10.658675 7.757851
Si 10.833284 4.673627 8.040606
Si 6.099055 7.444174 1.274465
Si 8.968451 1.618076 3.983792
Si 2.744644 6.685205 8.247140
Si 4.521592 10.800668 9.586379
Si 4.283031 4.887479 0.628850
Si 10.228492 9.112198 4.839306
Si 6.441393 6.332662 3.488684
Si 8.154739 6.863578 8.371384
Si 4.823102 9.447408 3.085327
Si 2.731530 0.815566 0.594319
Si 7.259537 4.176840 2.934073
Si 4.617159 2.220542 9.075436
Si 10.697154 2.266898 5.669970
Si 9.746208 2.102391 10.599694
Si 5.701389 9.597944 7.789486
Si 8.339371 1.096876 1.662932
Si 3.458795 9.076097 0.587559
Si 5.219812 2.790671 1.024798
Si 2.069257 4.280421 6.823144
Si 9.402596 7.703834 3.176509
Si 8.372650 10.299140 4.825706
Si 8.832398 2.689125 7.839775
Si 0.138564 6.812974 5.557439
Si 1.311120 4.267777 4.637913
Si 7.458529 3.223586 5.128152
Si 3.751669 2.510872 3.011475
Si 5.912321 10.624922 0.516333
Si 8.682920 5.167220 1.505575
Si 2.769557 4.603803 9.376135
Si 1.179012 9.934884 9.968185
64
Step 2160
Si 8.637198 9.838593 10.664876
Si 7.536344 0.473453 8.674766
Si 6.518068 0.420394 3.278146
Si 2.828566 4.567315 2.907215
Si 9.087831 5.417481 6.751733
Si 9.546901 7.413451 10.245381
Si 9.795584 4.784388 10.265176
Si 7.136104 2.392274 10.190990
Si 0.436563 7.511116 8.602680
Si 1.981745 9.573640 2.802843
Si 1.772387 2.140519 9.329742
Si 10.538169 5.605983 3.101145
Si 6.164450 8.055153 9.978440
Si 0.784270 3.598785 1.463204
Si 4.425587 6.061359 3.325133
Si 6.834953 5.662015 5.768368
Si 5.120962 3.542863 6.807962
Si 7.500638 8.856498 2.212374
Si 4.922374 1.616638 4.984935
Si 0.731584 8.203841 0.589387
Si 1.227515 6.081250 0.408496
Si 3.583165 8.341362 6.698685
Si 5.381780 6.072761 8.249639
Si 0.619295 1.569014 2.255960
Si 0.864701 10.853394 5.639919
Si 6.394687 5.128816 10.199548
Si 2.132667 1.196796 4.147477
Si 7.695686 8.774990 6.960390
Si 2.947314 7.564203 4.689640
Si 2.907842 1.947937 7.135006
Si 4.083096 10.452892 5.940973
Si 10.731864 10.583736 1.665986
Si 1.983776 10.656309 7.903209
Si 10.550235 4.662049 8.066378
Si 6.103117 7.427323 1.303888
Si 8.907871 1.671405 4.045651
Si 2.729554 6.685337 8.290439
Si 4.466602 10.802099 9.612058
Si 4.260881 4.782680 0.546897
Si 10.307107 9.143420 4.880942
Si 6.446699 6.406221 3.497546
Si 8.111385 6.857396 8.308397
Si 4.736878 9.392950 2.942921
Si 2.839824 0.815909 0.661147
Si 7.204109 4.242135 2.933821
Si 4.567844 2.233249 9.062653
Si 10.686602 2.335515 5.575320
Si 9.738182 2.168836 10.460015
Si 5.688440 9.653378 7.835614
Si 8.476762 1.245492 1.713922
Si 3.686515 8.874165 0.696021
Si 5.109920 2.635216 1.035889
Si 2.122660 4.393537 6.805308
Si 9.403797 7.607539 3.142740
Si 8.279843 10.285027 4.917095
Si 8.945652 2.545965 7.850599
Si 0.382542 6.815406 5.500456
Si 1.374167 4.309662 4.582133
Si 7.528341 3.179777 5.151002
Si 3.721982 2.632972 2.988093
Si 5.835481 10.732524 0.435418
Si 8.592007 5.089376 1.489406
Si 2.732789 4.660631 9.401296
Si 1.192555 10.061581 10.011499
64
Step 2170
Si 8.662966 9.735536 10.653978
Si 7.510696 0.402773 8.738698
Si 6.432042 0.345271 3.474421
Si 2.725076 4.546328 2.996990
Si 8.903706 5.540257 6.760765
Si 9.462011 7.450161 10.227132
Si 9.813414 4.867858 10.242448
Si 7.088365 2.354147 10.133190
Si 0.575027 7.612188 8.764427
Si 2.109659 9.508838 2.703963
Si 1.612939 2.183963 9.445444
Si 10.548715 5.669234 2.892142
Si 6.091422 8.031513 9.929945
Si 0.827382 3.663063 1.323062
Si 4.363930 6.184166 3.378556
Si 6.773042 5.690485 5.675251
Si 5.254461 3.563927 6.584915
Si 7.431960 8.805862 2.174710
Si 5.019217 1.523497 5.018461
Si 0.907152 8.337857 0.635508
Si 1.321586 6.161895 0.434888
Si 3.486080 8.342174 6.741450
Si 5.352529 5.988941 8.183815
Si 0.640869 1.520487 2.345546
Si 0.988002 0.003170 5.729811
Si 6.323072 5.184858 10.337668
Si 2.218082 1.058726 4.132610
Si 7.632186 8.773086 6.907380
Si 2.915609 7.579879 4.631049
Si 2.913677 1.963405 7.099562
Si 4.150281 10.288986 5.827661
Si 10.591332 10.626869 1.614538
Si 1.957839 10.541786 8.053692
Si 10.384877 4.607568 8.126931
Si 6.070741 7.388781 1.260870
Si 8.899602 1.759755 4.184624
Si 2.733560 6.771580 8.288629
Si 4.402105 10.799877 9.521912
Si 4.276746 4.696561 0.425648
Si 10.399139 9.177839 4.910081
Si 6.506403 6.407673 3.589798
Si 8.083067 6.908971 8.272421
Si 4.661307 9.363224 2.867534
Si 2.939574 0.811794 0.769120
Si 7.098364 4.270065 2.965829
Si 4.562488 2.291797 9.097238
Si 10.682245 2.443158 5.459405
Si 9.816245 2.238641 10.347535
Si 5.725006 9.709648 7.913771
Si 8.549779 1.396753 1.692792
Si 3.857035 8.654020 0.784534
Si 4.988912 2.457408 1.052850
Si 2.140505 4.485422 6.754242
Si 9.357970 7.488621 3.104259
Si 8.170684 10.235746 5.040947
Si 9.073988 2.412559 7.802673
Si 0.641043 6.812791 5.467735
Si 1.321141 4.329246 4.621669
Si 7.515597 3.112635 5.185429
Si 3.775294 2.579048 2.913901
Si 5.910679 0.031878 0.419656
Si 8.541166 5.043254 1.400102
Si 2.712628 4.666373 9.497893
Si 1.181792 10.180123 10.050286
64
Step 2180
Si 8.625515 9.667311 10.676749
Si 7.508013 0.312412 8.844802
Si 6.336177 0.219131 3.592203
Si 2.650244 4.576683 3.017652
Si 8.751910 5.654465 6.757658
Si 9.358523 7.511331 10.157699
Si 9.860559 4.948484 10.249025
Si 7.019342 2.365394 10.094992
Si 0.730374 7.692917 8.924489
Si 2.193360 9.489843 2.665524
Si 1.442386 2.250195 9.631171
Si 10.609437 5.719585 2.675887
Si 6.040062 8.090081 9.843027
Si 0.893396 3.744781 1.149248
Si 4.168078 6.289833 3.457676
Si 6.691086 5.682854 5.688109
Si 5.349898 3.622134 6.409205
Si 7.344545 8.830330 2.101231
Si 5.133358 1.445066 5.032309
Si 1.095359 8.483478 0.703376
Si 1.384702 6.168371 0.434406
Si 3.336081 8.312235 6.810617
Si 5.282467 5.875720 8.106508
Si 0.686719 1.540826 2.457089
Si 1.080300 0.012989 5.839145
Si 6.319890 5.225894 10.481935
Si 2.332436 0.918165 4.119055
Si 7.554482 8.795539 6.851854
Si 2.867885 7.596666 4.562016
Si 2.915627 1.996894 6.999954
Si 4.176880 10.198135 5.669710
Si 10.360557 10.625902 1.524054
Si 2.012384 10.372434 8.144056
Si 10.297092 4.528176 8.165748
Si 6.070741 7.316396 1.172243
Si 8.927571 1.823938 4.296265
Si 2.727002 6.867449 8.279102
Si 4.318170 10.786971 9.381516
Si 4.304077 4.572449 0.346910
Si 10.470928 9.168065 4.923143
Si 6.647998 6.425161 3.678814
Si 8.023931 7.053294 8.253212
Si 4.618056 9.409588 2.886482
Si 2.980324 0.733301 0.834530
Si 7.003726 4.245590 3.011573
Si 4.521159 2.406619 9.076293
Si 10.734133 2.544161 5.374007
Si 9.913812 2.295240 10.253317
Si 5.790350 9.746584 7.970578
Si 8.576885 1.516678 1.629118
Si 4.020161 8.497720 0.795681
Si 4.895366 2.327430 1.074334
Si 2.148601 4.525121 6.750527
Si 9.305305 7.380674 3.096768
Si 8.104920 10.154358 5.188947
Si 9.199155 2.286308 7.717694
Si 0.887265 6.832026 5.403673
Si 1.159540 4.357797 4.691071
Si 7.509955 3.066483 5.262026
Si 3.862376 2.467259 2.905536
Si 6.108970 0.112623 0.534600
Si 8.501352 4.989817 1.253660
Si 2.718299 4.630129 9.612396
Si 1.124756 10.280512 10.091793
64
Step 2190
Si 8.557962 9.634119 10.748582
Si 7.546921 0.227679 8.945265
Si 6.363446 0.059017 3.661708
Si 2.615897 4.588581 2.938047
Si 8.642764 5.723013 6.789445
Si 9.280431 7.564037 10.065124
Si 9.903018 5.049749 10.181619
Si 6.954612 2.403743 10.049495
Si 0.828904 7.756917 9.074794
Si 2.200142 9.497248 2.680903
Si 1.350943 2.303316 9.813150
Si 10.673206 5.788497 2.543492
Si 6.042668 8.161361 9.675979
Si 0.995898 3.769295 1.021463
Si 4.010264 6.304197 3.438522
Si 6.608894 5.660698 5.811741
Si 5.339343 3.676910 6.342765
Si 7.302078 8.866794 1.995646
Si 5.208253 1.394422 5.058419
Si 1.295499 8.632202 0.790367
Si 1.468386 6.196540 0.407798
Si 3.209175 8.367632 6.821361
Si 5.209727 5.739598 8.079572
Si 0.756234 1.588851 2.561681
Si 1.149784 0.039851 5.943389
Si 6.376265 5.270495 10.581290
Si 2.423882 0.780107 4.087508
Si 7.444907 8.833411 6.809636
Si 2.791989 7.748555 4.559385
Si 2.916954 2.067423 6.909391
Si 4.194930 10.113616 5.515695
Si 10.109279 10.610363 1.407419
Si 2.129141 10.210992 8.194278
Si 10.233715 4.465514 8.137613
Si 6.140496 7.188894 1.134626
Si 8.990745 1.789847 4.316872
Si 2.740751 6.840455 8.338083
Si 4.209972 10.780302 9.269584
Si 4.290704 4.401491 0.386642
Si 10.533017 9.117899 4.927534
Si 6.803152 6.460317 3.680647
Si 7.939856 7.224767 8.276946
Si 4.605065 9.482556 2.947870
Si 2.890058 0.567887 0.832639
Si 6.970835 4.217848 3.032162
Si 4.449047 2.523180 8.962591
Si 10.823463 2.587599 5.314153
Si 9.982438 2.324270 10.202338
Si 5.845284 9.772870 7.960503
Si 8.566277 1.575159 1.547950
Si 4.116989 8.373400 0.771783
Si 4.864590 2.282159 1.047598
Si 2.181986 4.523084 6.848258
Si 9.226399 7.271098 3.086396
Si 8.104170 10.103598 5.286259
Si 9.308982 2.154769 7.611077
Si 1.025843 6.884880 5.315516
Si 0.947344 4.404030 4.725454
Si 7.512338 3.074553 5.363903
Si 3.903860 2.427579 3.037768
Si 6.339899 0.167730 0.716131
Si 8.417816 4.935030 1.161640
Si 2.690923 4.593032 9.642203
Si 1.026196 10.438963 10.196316
64
Step 2200
Si 8.513385 9.589238 10.815878
Si 7.634992 0.216546 9.036418
Si 6.502485 10.752664 3.688495
Si 2.638840 4.610953 2.841343
Si 8.640235 5.731634 6.906863
Si 9.298355 7.584063 9.965570
Si 9.916608 5.183190 10.085149
Si 6.908125 2.467418 10.010105
Si 0.840283 7.858003 9.215315
Si 2.164226 9.491464 2.748717
Si 1.394453 2.315359 9.956753
Si 10.727145 5.867916 2.526719
Si 6.033794 8.181066 9.484307
Si 1.090232 3.709958 1.011202
Si 3.936309 6.221973 3.330986
Si 6.504839 5.688667 5.884344
Si 5.203614 3.667087 6.343093
Si 7.293752 8.909437 1.917687
Si 5.254368 1.406668 5.117618
Si 1.478995 8.750878 0.884774
Si 1.553235 6.260026 0.382151
Si 3.105291 8.489945 6.830439
Si 5.169273 5.647752 8.108212
Si 0.781306 1.660754 2.625247
Si 1.213420 0.074558 6.021894
Si 6.416967 5.300541 10.687351
Si 2.505802 0.673302 4.076854
Si 7.301175 8.815869 6.789268
Si 2.735771 7.948561 4.525654
Si 2.921259 2.123387 6.808946
Si 4.181212 10.051898 5.442059
Si 9.893264 10.627603 1.275249
Si 2.285502 10.063873 8.250129
Si 10.147645 4.447849 8.029249
Si 6.217792 7.032791 1.107251
Si 9.040225 1.722816 4.264165
Si 2.790518 6.732821 8.423446
Si 4.088920 10.803058 9.212068
Si 4.297081 4.227995 0.486131
Si 10.568618 9.044658 4.905768
Si 6.935103 6.439409 3.661269
Si 7.870625 7.374101 8.325203
Si 4.661335 9.590015 2.959483
Si 2.783246 0.421002 0.789360
Si 6.983929 4.235653 3.044148
Si 4.381231 2.596302 8.828356
Si 0.018149 2.573095 5.238018
Si 9.889803 2.296049 10.166110
Si 5.879955 9.855225 7.888257
Si 8.591657 1.613554 1.479146
Si 4.172962 8.246024 0.744178
Si 4.870247 2.237610 0.997599
Si 2.236260 4.538877 6.955143
Si 9.161955 7.179514 3.127029
Si 8.166560 10.111005 5.297452
Si 9.383725 2.021725 7.511523
Si 0.907565 6.888435 5.229007
Si 0.749260 4.484844 4.751917
Si 7.565718 3.080470 5.420781
Si 3.920643 2.398093 3.217697
Si 6.521295 0.260805 0.908599
Si 8.304858 4.872020 1.126601
Si 2.661044 4.547341 9.600093
Si 0.915574 10.630582 10.294154
64
Step 2210
Si 8.477982 9.490203 10.780094
Si 7.755172 0.210316 9.114055
Si 6.756204 10.639003 3.732232
Si 2.648741 4.559649 2.750351
Si 8.633729 5.719085 7.019992
Si 9.369646 7.592053 9.851624
Si 9.954784 5.315419 10.025989
Si 6.884253 2.549010 9.960240
Si 0.823566 7.934085 9.326814
Si 2.116536 9.522342 2.936702
Si 1.462335 2.319856 10.085940
Si 10.745162 5.929425 2.488274
Si 5.975348 8.162922 9.378988
Si 1.118148 3.607173 1.077770
Si 3.918963 6.232556 3.251080
Si 6.441050 5.779279 5.917654
Si 5.012073 3.647527 6.381829
Si 7.355892 8.866196 1.906128
Si 5.283537 1.422182 5.151483
Si 1.610676 8.738342 0.891760
Si 1.601132 6.336426 0.378510
Si 2.996427 8.534899 6.885235
Si 5.110479 5.575426 8.197639
Si 0.748225 1.737160 2.678092
Si 1.272275 0.115666 6.098129
Si 6.394304 5.265703 10.721958
Si 2.537111 0.609169 4.058106
Si 7.217870 8.738887 6.672208
Si 2.671614 7.962759 4.415804
Si 2.884402 2.162705 6.688206
Si 4.202617 10.076457 5.470449
Si 9.794774 10.667199 1.155191
Si 2.328292 9.950862 8.281603
Si 10.029270 4.421628 7.943419
Si 6.247768 6.914610 1.123419
Si 9.075999 1.629002 4.128648
Si 2.867399 6.646824 8.461898
Si 4.048260 0.063823 9.195534
Si 4.291573 4.118890 0.592139
Si 10.532694 8.946088 4.868600
Si 7.021346 6.422474 3.668618
Si 7.899178 7.443632 8.375151
Si 4.754618 9.693073 2.909708
Si 2.765910 0.374570 0.737941
Si 7.075624 4.210828 3.054347
Si 4.371801 2.595425 8.723163
Si 0.067355 2.536809 5.225674
Si 9.715250 2.264669 10.096909
Si 5.880365 10.060033 7.853982
Si 8.612454 1.708909 1.449057
Si 4.159403 8.139404 0.718981
Si 4.864283 2.122374 0.991497
Si 2.269385 4.555368 7.016839
Si 9.105693 7.137107 3.191703
Si 8.307471 10.151823 5.246608
Si 9.442715 1.926477 7.420836
Si 0.719980 6.898101 5.135299
Si 0.611174 4.612674 4.781187
Si 7.635097 3.088933 5.429683
Si 3.948777 2.358927 3.377101
Si 6.600812 0.452472 1.107007
Si 8.273989 4.769720 1.150763
Si 2.682926 4.504908 9.537288
Si 0.740122 10.844479 10.340861
64
Step 2220
Si 8.397282 9.371034 10.705905
Si 7.862792 0.233424 9.168703
Si 7.030048 10.550352 3.805890
Si 2.687759 4.475960 2.666396
Si 8.553719 5.706289 7.075473
Si 9.517794 7.621915 9.791456
Si 9.994818 5.382690 10.082123
Si 6.860123 2.628719 9.924072
Si 0.782357 8.022301 9.437384
Si 1.994002 9.561008 3.136487
Si 1.536588 2.347557 10.171794
Si 10.745508 5.943274 2.402326
Si 5.893669 8.111589 9.393255
Si 1.115610 3.529304 1.212690
Si 3.963092 6.343114 3.166153
Si 6.441785 5.871392 5.928453
Si 4.856506 3.672152 6.417996
Si 7.469892 8.746611 1.906795
Si 5.346417 1.450940 5.168857
Si 1.735152 8.699449 0.884679
Si 1.665765 6.344636 0.406152
Si 2.973677 8.463990 6.882712
Si 5.097495 5.511512 8.303681
Si 0.667573 1.760800 2.659695
Si 1.324549 0.147877 6.197918
Si 6.297544 5.150138 10.650058
Si 2.513998 0.594568 4.034739
Si 7.169383 8.679506 6.456167
Si 2.637248 7.831542 4.289959
Si 2.769239 2.182056 6.529527
Si 4.272114 10.134439 5.573780
Si 9.845724 10.743574 1.076535
Si 2.203151 9.925422 8.325195
Si 9.950649 4.342285 7.861678
Si 6.195628 6.892554 1.204888
Si 9.070433 1.539573 3.971562
Si 2.932456 6.655156 8.460761
Si 4.090762 0.262417 9.189447
Si 4.236748 4.055161 0.654604
Si 10.459907 8.912020 4.811867
Si 6.977955 6.390624 3.717023
Si 7.942431 7.415301 8.316334
Si 4.840419 9.779473 2.829388
Si 2.846896 0.425499 0.720516
Si 7.205455 4.128179 3.132061
Si 4.400756 2.548486 8.699184
Si 0.141332 2.551076 5.282513
Si 9.514561 2.287648 9.969265
Si 5.881034 10.324434 7.869501
Si 8.625085 1.863387 1.441403
Si 4.112052 8.002238 0.752688
Si 4.822645 1.947470 1.011220
Si 2.225722 4.546508 6.997166
Si 9.104430 7.146395 3.252728
Si 8.504977 10.172311 5.176358
Si 9.488779 1.882601 7.313873
Si 0.518082 6.919962 5.014004
Si 0.510670 4.657393 4.832000
Si 7.699922 3.109032 5.414067
Si 3.956408 2.316153 3.505505
Si 6.612470 0.729494 1.286471
Si 8.405813 4.613081 1.187056
Si 2.707466 4.424861 9.533654
Si 0.517695 0.142085 10.342200
64
Step 2230
Si 8.277723 9.318546 10.669569
Si 7.892565 0.265622 9.193141
Si 7.149121 10.452123 3.795461
Si 2.718448 4.388538 2.622444
Si 8.435174 5.666077 7.085939
Si 9.630596 7.652153 9.720516
Si 10.049456 5.313271 10.173783
Si 6.803614 2.684262 9.889664
Si 0.798381 8.167908 9.511973
Si 1.820311 9.582976 3.237847
Si 1.580752 2.406680 10.220772
Si 10.791495 5.863031 2.235224
Si 5.822907 8.021792 9.443326
Si 1.031874 3.492285 1.394643
Si 4.058155 6.497426 3.067310
Si 6.464111 5.920641 5.929631
Si 4.790931 3.744064 6.446048
Si 7.580050 8.588955 1.925665
Si 5.479465 1.473779 5.171738
Si 1.895877 8.773389 0.922612
Si 1.698099 6.247290 0.427985
Si 2.976640 8.368650 6.833138
Si 5.130519 5.493211 8.414328
Si 0.617420 1.738330 2.567596
Si 1.353141 0.105702 6.306409
Si 6.167405 5.001709 10.547640
Si 2.485643 0.631153 4.000864
Si 7.101225 8.643378 6.240362
Si 2.603272 7.621033 4.260905
Si 2.594877 2.224525 6.365935
Si 4.371058 10.145303 5.690919
Si 9.956921 10.828114 1.046036
Si 2.060533 9.894359 8.373046
Si 9.937314 4.259281 7.834774
Si 6.105752 6.862373 1.312131
Si 9.088162 1.505158 3.839388
Si 2.993214 6.744334 8.419772
Si 4.108199 0.449206 9.198504
Si 4.295082 4.000716 0.703906
Si 10.412029 8.949172 4.741275
Si 6.879355 6.299240 3.724406
Si 7.989117 7.401206 8.240423
Si 4.869022 9.868279 2.735270
Si 2.992520 0.400924 0.736141
Si 7.341048 4.083732 3.241761
Si 4.460901 2.472738 8.733739
Si 0.180455 2.609060 5.352489
Si 9.328807 2.397577 9.792435
Si 5.918011 10.559952 7.908441
Si 8.640343 2.049304 1.452921
Si 4.062033 7.874605 0.836576
Si 4.684057 1.797708 1.054554
Si 2.081771 4.570544 6.935023
Si 9.066752 7.230475 3.307456
Si 8.782289 10.152173 5.207681
Si 9.490264 1.872536 7.184733
Si 0.409259 7.003528 4.940449
Si 0.460640 4.622600 4.855412
Si 7.734169 3.142505 5.419034
Si 3.965853 2.323249 3.556017
Si 6.646056 0.985257 1.455506
Si 8.577338 4.479495 1.241064
Si 2.707252 4.312801 9.590234
Si 0.327186 0.225990 10.300000
64
Step 2240
Si 8.150980 9.328387 10.680573
Si 7.902930 0.278483 9.147507
Si 7.100316 10.343300 3.668836
Si 2.800428 4.372146 2.617478
Si 8.343014 5.547184 7.060440
Si 9.678261 7.640524 9.661435
Si 10.135627 5.222019 10.285735
Si 6.672846 2.759247 9.869299
Si 0.899913 8.350232 9.563209
Si 1.674047 9.494674 3.247615
Si 1.552686 2.444324 10.250279
Si 10.818767 5.756935 2.101070
Si 5.800751 7.935396 9.477118
Si 0.925078 3.503104 1.476315
Si 4.145110 6.630138 2.997466
Si 6.478300 5.907582 5.938137
Si 4.783529 3.825212 6.475828
Si 7.661514 8.466520 1.947792
Si 5.651306 1.520466 5.175307
Si 2.055818 8.947219 0.995118
Si 1.708365 6.109008 0.431124
Si 2.972578 8.293313 6.696278
Si 5.168192 5.507112 8.537421
Si 0.556664 1.602939 2.540479
Si 1.342359 0.008308 6.444296
Si 6.074258 4.881393 10.477011
Si 2.479167 0.648373 3.932325
Si 7.001283 8.642945 6.066233
Si 2.517682 7.440731 4.335973
Si 2.457881 2.267935 6.240186
Si 4.489880 10.168201 5.798772
Si 9.951506 10.860618 1.162143
Si 1.942272 9.905948 8.386154
Si 9.932410 4.277981 7.827764
Si 6.066648 6.842638 1.392701
Si 9.149161 1.506538 3.742603
Si 3.057733 6.803331 8.393518
Si 4.057990 0.509514 9.185057
Si 4.394765 3.967970 0.736599
Si 10.515971 9.006349 4.634977
Si 6.782435 6.170979 3.695304
Si 8.009372 7.408664 8.141970
Si 4.824880 10.002591 2.648436
Si 3.092022 0.309419 0.728082
Si 7.480869 4.064037 3.371018
Si 4.544990 2.458647 8.746988
Si 0.172975 2.654596 5.374245
Si 9.198528 2.550107 9.648787
Si 5.955088 10.707713 7.936488
Si 8.686976 2.254466 1.471234
Si 4.018131 7.780238 0.911188
Si 4.541324 1.677828 1.193022
Si 1.887637 4.655484 6.898588
Si 8.993915 7.348771 3.335991
Si 9.021220 10.203736 5.363171
Si 9.451987 1.785090 7.025284
Si 0.433103 7.005990 4.909919
Si 0.444147 4.600646 4.835680
Si 7.741402 3.209538 5.441199
Si 4.014134 2.335340 3.564421
Si 6.676715 1.151459 1.616231
Si 8.700410 4.347867 1.313021
Si 2.688548 4.182100 9.662517
Si 0.293213 0.332449 10.153033
64
Step 2250
Si 8.041019 9.347609 10.708746
Si 7.923841 0.304242 9.071501
Si 7.012768 10.242622 3.532262
Si 2.912619 4.422313 2.628072
Si 8.302619 5.387194 7.058916
Si 9.707675 7.623840 9.664241
Si 10.212372 5.159065 10.339422
Si 6.573533 2.735616 9.853057
Si 1.083726 8.514819 9.677820
Si 1.552666 9.339195 3.278461
Si 1.496731 2.443731 10.314213
Si 10.797523 5.697809 2.126050
Si 5.806065 7.855182 9.476405
Si 0.823668 3.479271 1.508902
Si 4.147828 6.648010 3.002696
Si 6.409128 5.893575 5.959889
Si 4.757115 3.888740 6.506042
Si 7.681114 8.380116 1.917400
Si 5.822686 1.604953 5.198093
Si 2.162511 9.159353 1.027181
Si 1.764947 6.009631 0.357690
Si 2.962493 8.272541 6.480356
Si 5.156046 5.570701 8.638964
Si 0.511972 1.398945 2.602863
Si 1.325129 10.746420 6.512031
Si 6.092470 4.903842 10.472306
Si 2.502667 0.611608 3.851690
Si 6.878574 8.695959 5.925794
Si 2.448849 7.351364 4.463117
Si 2.367402 2.313413 6.153499
Si 4.637244 10.190017 5.837702
Si 9.905672 0.029325 1.244173
Si 1.858534 9.971199 8.415348
Si 9.983603 4.390125 7.863166
Si 6.156335 6.805444 1.384963
Si 9.193587 1.489759 3.727066
Si 3.121205 6.801564 8.440178
Si 3.951309 0.415077 9.162239
Si 4.375478 3.932554 0.803322
Si 10.747589 9.030400 4.483171
Si 6.678176 6.098571 3.694792
Si 7.975717 7.441084 8.021576
Si 4.750747 10.127471 2.600055
Si 3.067100 0.168061 0.629439
Si 7.600556 4.036661 3.466201
Si 4.604844 2.564439 8.689694
Si 0.171997 2.641720 5.324232
Si 9.102517 2.642168 9.531170
Si 5.982854 10.751467 7.917166
Si 8.737234 2.286827 1.396541
Si 3.983071 7.741913 0.914966
Si 4.477715 1.673030 1.421620
Si 1.706110 4.775167 6.931079
Si 8.947902 7.436524 3.373561
Si 9.126089 10.384098 5.601088
Si 9.360953 1.611438 6.847702
Si 0.442115 6.943508 4.895030
Si 0.449406 4.609065 4.739121
Si 7.714028 3.204184 5.516877
Si 4.109581 2.328022 3.620520
Si 6.726882 1.259063 1.756257
Si 8.818410 4.359930 1.340079
Si 2.707710 4.115294 9.665650
Si 0.311980 0.465141 10.020566
64
Step 2260
Si 7.963598 9.397266 10.689318
Si 7.987480 0.323824 9.015004
Si 6.909293 10.186396 3.481360
Si 2.994929 4.543002 2.641502
Si 8.266264 5.228386 7.037134
Si 9.720090 7.608824 9.675305
Si 10.275857 5.148863 10.295803
Si 6.524512 2.635987 9.891288
Si 1.293042 8.571242 9.828983
Si 1.625423 9.258634 3.131439
Si 1.463205 2.462019 10.437500
Si 10.766808 5.703572 2.280240
Si 5.844128 7.804270 9.451520
Si 0.757953 3.359861 1.547666
Si 4.074753 6.600301 3.097872
Si 6.265958 5.890255 5.993045
Si 4.729785 3.924088 6.517434
Si 7.670176 8.367167 1.842914
Si 5.966653 1.703728 5.211118
Si 2.203565 9.237946 1.080990
Si 1.868951 5.974549 0.216831
Si 2.989907 8.299691 6.293172
Si 5.084241 5.670882 8.720869
Si 0.563315 1.205754 2.709771
Si 1.286311 10.661277 6.444081
Si 6.215178 4.997056 10.541600
Si 2.507738 0.533924 3.821549
Si 6.807991 8.757415 5.813703
Si 2.555132 7.235229 4.564257
Si 2.314619 2.344238 6.092496
Si 4.784301 10.193782 5.772609
Si 9.886349 0.025292 1.206432
Si 1.823479 10.072927 8.482594
Si 10.136616 4.463346 7.890182
Si 6.315699 6.721461 1.292528
Si 9.183179 1.442790 3.771833
Si 3.124015 6.805733 8.505340
Si 3.829486 0.265415 9.148466
Si 4.275584 3.898623 0.884385
Si 10.752248 9.050534 4.471452
Si 6.562285 6.054345 3.724777
Si 7.902055 7.531304 7.901388
Si 4.705059 10.140264 2.643800
Si 3.013335 0.193248 0.378920
Si 7.694307 4.033368 3.523620
Si 4.613192 2.673256 8.579544
Si 0.168940 2.563547 5.265663
Si 9.019024 2.631628 9.413804
Si 5.963878 10.763502 7.898977
Si 8.798184 2.168429 1.203385
Si 3.942785 7.706354 0.874461
Si 4.470233 1.756646 1.614671
Si 1.573963 4.896734 7.050867
Si 8.926756 7.458772 3.452718
Si 9.200998 10.531610 5.829520
Si 9.237284 1.455360 6.729946
Si 0.351905 6.847598 4.924173
Si 0.473073 4.666246 4.585665
Si 7.657143 3.166707 5.690650
Si 4.188696 2.328177 3.803430
Si 6.762923 1.390146 1.850165
Si 8.863486 4.534854 1.335125
Si 2.752208 4.064865 9.612451
Si 0.272484 0.589480 9.904681
64
Step 2270
Si 7.951953 9.438872 10.562388
Si 8.034675 0.289351 8.964570
Si 6.830759 10.195115 3.474940
Si 3.007671 4.713064 2.664018
Si 8.245273 5.072015 7.005802
Si 9.694942 7.650305 9.684972
Si 10.336696 5.161280 10.220924
Si 6.465988 2.602720 9.993688
Si 1.409091 8.474377 9.989653
Si 1.737746 9.202843 3.023239
Si 1.464340 2.533047 10.571106
Si 10.724025 5.730930 2.430763
Si 5.913374 7.783414 9.447788
Si 0.711152 3.188196 1.610025
Si 4.019825 6.485756 3.184671
Si 6.108180 5.955915 6.046176
Si 4.656083 3.899899 6.520697
Si 7.658498 8.361822 1.770103
Si 6.092250 1.739555 5.225041
Si 2.228557 9.147683 1.084757
Si 1.959609 5.955913 0.086713
Si 3.096784 8.448097 6.282771
Si 5.056885 5.766814 8.780646
Si 0.654882 1.056166 2.783550
Si 1.208571 10.626560 6.256953
Si 6.349142 5.053669 10.646719
Si 2.555884 0.441778 3.866734
Si 6.805690 8.822004 5.757881
Si 2.625186 7.083094 4.574857
Si 2.323929 2.361174 6.017314
Si 4.882288 10.190151 5.639702
Si 9.864262 0.031608 1.113627
Si 1.789270 10.212312 8.516006
Si 10.296906 4.517144 7.907222
Si 6.477965 6.625883 1.153015
Si 9.112496 1.404715 3.801500
Si 3.057920 6.839837 8.533865
Si 3.784001 0.139619 9.059539
Si 4.223602 3.934723 0.882804
Si 10.635539 9.120286 4.537567
Si 6.431232 5.953029 3.761079
Si 7.810626 7.621099 7.809449
Si 4.641282 10.098919 2.731303
Si 3.057920 0.453339 0.175113
Si 7.775484 4.035325 3.573751
Si 4.620760 2.721309 8.438699
Si 0.156728 2.464542 5.223857
Si 9.005166 2.609427 9.317471
Si 5.905714 10.746397 7.896691
Si 8.881957 2.081157 0.937173
Si 3.925232 7.674177 0.853304
Si 4.484669 1.797070 1.760166
Si 1.444202 4.995749 7.194474
Si 8.945131 7.444624 3.532183
Si 9.244728 10.352645 5.883420
Si 9.116241 1.558026 6.836017
Si 0.290327 6.742361 5.055529
Si 0.531667 4.705695 4.424126
Si 7.606565 3.127432 5.862653
Si 4.202520 2.371997 4.095663
Si 6.792691 1.512235 1.939390
Si 8.872997 4.701879 1.314209
Si 2.784380 4.000747 9.539491
Si 0.141899 0.695107 9.754465
64
Step 2280
Si 7.985590 9.436133 10.431782
Si 8.031130 0.249517 8.933230
Si 6.808134 10.219472 3.410285
Si 2.928088 4.689553 2.632048
Si 8.196036 4.971371 6.978127
Si 9.665548 7.725294 9.691477
Si 10.397148 5.186533 10.170656
Si 6.407180 2.518674 10.108153
Si 1.401096 8.279596 10.078466
Si 1.773502 9.070433 3.101786
Si 1.472344 2.523266 10.685235
Si 10.643365 5.758083 2.473446
Si 6.006552 7.848142 9.458135
Si 0.630552 3.021161 1.726622
Si 4.108557 6.477026 3.207408
Si 5.965106 6.055833 6.121321
Si 4.566159 3.886262 6.488851
Si 7.644186 8.392860 1.758077
Si 6.187503 1.692291 5.270186
Si 2.340165 9.120980 0.955552
Si 1.974170 5.895150 0.000561
Si 3.209492 8.678052 6.364339
Si 5.044642 5.821222 8.771263
Si 0.673634 1.013482 2.777613
Si 1.156400 10.600454 6.049742
Si 6.470432 4.948473 10.721095
Si 2.683753 0.368346 3.993514
Si 6.853010 8.914938 5.709353
Si 2.670472 6.976995 4.591011
Si 2.352116 2.411520 5.973211
Si 4.922623 10.189435 5.501615
Si 9.835581 0.038855 1.015262
Si 1.712623 10.355788 8.456983
Si 10.406985 4.532598 7.954485
Si 6.620353 6.608816 1.157807
Si 9.040748 1.371866 3.784472
Si 2.928934 6.831865 8.497649
Si 3.823034 0.056343 8.896277
Si 4.239363 4.012751 0.878844
Si 10.526419 9.190905 4.605228
Si 6.320767 5.848611 3.760072
Si 7.710939 7.680601 7.765891
Si 4.512205 10.001542 2.784330
Si 3.108689 0.783913 0.105035
Si 7.839032 4.005528 3.607840
Si 4.617158 2.691520 8.350121
Si 0.119358 2.383932 5.231906
Si 9.030136 2.646104 9.244423
Si 5.847504 10.768007 7.931298
Si 8.953937 2.069390 0.680136
Si 4.057298 7.639511 0.877695
Si 4.502342 1.837201 1.891629
Si 1.410682 5.085088 7.329084
Si 8.908707 7.407242 3.553221
Si 9.224941 10.082709 5.873067
Si 9.022716 1.714166 6.974784
Si 0.272460 6.702519 5.319820
Si 0.619408 4.616410 4.255716
Si 7.559846 3.099790 6.008347
Si 4.171313 2.471965 4.349591
Si 6.876483 1.630671 2.033299
Si 8.860484 4.871093 1.269337
Si 2.857803 3.950747 9.422480
Si 0.015073 0.793398 9.583696
64
Step 2290
Si 8.039993 9.333093 10.364349
Si 7.938002 0.225114 8.913835
Si 6.862798 10.251133 3.276454
Si 2.797085 4.572642 2.562616
Si 8.146942 4.975727 6.985498
Si 9.678529 7.762698 9.708658
Si 10.424361 5.281720 10.173205
Si 6.393057 2.401260 10.212962
Si 1.319405 8.088596 10.061961
Si 1.756499 8.890155 3.234344
Si 1.490498 2.420896 10.737593
Si 10.530179 5.799549 2.474708
Si 6.106539 7.911642 9.518550
Si 0.500883 2.908793 1.865204
Si 4.245642 6.526768 3.159361
Si 5.859697 6.198248 6.193476
Si 4.484296 3.951636 6.470460
Si 7.664770 8.512298 1.803969
Si 6.211595 1.543270 5.256460
Si 2.482691 9.183972 0.810487
Si 1.957919 5.822546 0.008557
Si 3.310901 8.892357 6.466981
Si 4.996365 5.850494 8.713245
Si 0.648259 0.956209 2.741760
Si 1.196979 10.620716 5.888364
Si 6.542993 4.709741 10.736473
Si 2.791687 0.309295 4.123166
Si 6.951508 8.966103 5.642355
Si 2.680848 6.957490 4.653303
Si 2.303864 2.469754 5.981808
Si 4.932178 10.186238 5.455873
Si 9.852819 0.029955 0.924753
Si 1.594048 10.468105 8.369189
Si 10.366952 4.502871 7.998662
Si 6.642968 6.648580 1.204196
Si 8.943299 1.300703 3.778498
Si 2.810224 6.811736 8.400407
Si 3.842978 0.041000 8.761468
Si 4.278008 4.088048 0.889329
Si 10.569307 9.108771 4.516353
Si 6.299371 5.768105 3.761131
Si 7.615001 7.703315 7.762334
Si 4.406590 9.858072 2.786967
Si 3.179695 1.108545 0.091008
Si 7.922745 3.960550 3.550556
Si 4.597954 2.609558 8.336485
Si 0.098953 2.300826 5.254455
Si 9.084591 2.762346 9.200585
Si 5.814784 10.825173 7.917170
Si 8.990339 2.156898 0.478629
Si 4.286126 7.585942 0.915181
Si 4.520089 1.883095 1.953336
Si 1.514760 5.204471 7.412258
Si 8.814548 7.397957 3.608312
Si 8.992892 9.954601 5.944747
Si 9.017045 1.799929 7.089269
Si 0.260691 6.692805 5.595952
Si 0.731038 4.479103 4.117652
Si 7.514775 3.072010 6.115960
Si 4.136949 2.619266 4.533552
Si 6.981205 1.762598 2.155779
Si 8.882660 4.954368 1.245405
Si 2.976676 3.903324 9.306656
Si 10.796969 0.879205 9.411718
64
Step 2300
Si 8.110978 9.200602 10.392618
Si 7.804636 0.182639 8.882658
Si 6.927683 10.286073 3.079287
Si 2.643890 4.480572 2.511695
Si 8.083359 5.110819 7.014577
Si 9.759992 7.758304 9.726313
Si 10.407981 5.431187 10.197820
Si 6.359035 2.307183 10.331015
Si 1.191344 7.963272 10.016484
Si 1.671524 8.702403 3.346332
Si 1.508631 2.330972 10.719694
Si 10.440576 5.815209 2.526129
Si 6.145403 7.905161 9.590683
Si 0.355912 2.881712 1.998303
Si 4.326347 6.559821 3.083989
Si 5.810099 6.346814 6.253077
Si 4.452742 4.105507 6.468438
Si 7.747967 8.701025 1.864041
Si 6.224476 1.360546 5.181602
Si 2.645234 9.267271 0.675306
Si 1.998934 5.742193 0.105336
Si 3.353559 9.045530 6.622291
Si 4.986274 5.921059 8.655272
Si 0.604741 0.847457 2.728819
Si 1.267221 10.660333 5.816315
Si 6.560323 4.471882 10.720022
Si 2.880340 0.268598 4.212706
Si 7.057970 8.934798 5.548621
Si 2.661111 7.007187 4.746805
Si 2.183297 2.527028 6.008520
Si 4.954200 10.174267 5.469073
Si 9.882532 10.855142 0.824532
Si 1.462834 10.526815 8.254429
Si 10.293269 4.504410 8.010049
Si 6.614559 6.671252 1.209669
Si 8.861084 1.233410 3.867559
Si 2.729714 6.838300 8.239701
Si 3.813038 0.055932 8.677930
Si 4.333749 4.164666 0.875856
Si 10.627879 8.982411 4.431968
Si 6.385088 5.687224 3.807934
Si 7.540964 7.680277 7.761132
Si 4.351608 9.735185 2.730394
Si 3.324700 1.327697 0.108680
Si 7.996442 3.941190 3.434345
Si 4.615317 2.491668 8.363396
Si 0.033925 2.180929 5.254310
Si 9.137192 2.931092 9.153767
Si 5.815790 0.012728 7.803561
Si 8.948353 2.289837 0.365504
Si 4.495705 7.522275 0.962141
Si 4.539075 1.913597 2.002461
Si 1.614494 5.312537 7.440764
Si 8.670885 7.391966 3.707450
Si 8.776830 9.906560 6.045175
Si 9.055392 1.791721 7.127742
Si 0.260672 6.685168 5.847863
Si 0.844660 4.373417 3.983935
Si 7.513609 2.984378 6.173749
Si 4.109241 2.781488 4.617661
Si 7.026698 1.924643 2.258809
Si 8.953526 4.950840 1.236560
Si 3.052405 3.858823 9.248334
Si 10.777000 0.916988 9.262786
64
Step 2310
Si 8.166155 9.116816 10.452128
Si 7.766649 0.187982 8.899728
Si 6.922826 10.358030 2.893377
Si 2.610368 4.421130 2.513920
Si 7.998211 5.281922 7.026045
Si 9.854163 7.717597 9.713867
Si 10.365913 5.611072 10.255197
Si 6.286041 2.164370 10.408392
Si 1.127954 7.951191 9.944632
Si 1.597942 8.540998 3.423936
Si 1.483573 2.292652 10.656985
Si 10.312597 5.865994 2.683877
Si 6.148479 7.884312 9.636446
Si 0.198834 2.888666 2.039587
Si 4.344730 6.540679 3.058994
Si 5.820588 6.446417 6.252204
Si 4.475600 4.297937 6.507454
Si 7.904099 8.838120 1.928072
Si 6.234245 1.216260 5.079223
Si 2.795350 9.367375 0.548990
Si 2.062253 5.662472 0.188840
Si 3.340067 9.102331 6.812136
Si 4.982236 6.008876 8.667597
Si 0.571297 0.642034 2.784996
Si 1.307831 10.690317 5.808889
Si 6.525110 4.282671 10.717925
Si 2.931263 0.277177 4.242241
Si 7.035842 8.768112 5.400933
Si 2.587347 7.090532 4.828441
Si 2.022831 2.624966 6.044121
Si 5.005753 10.155057 5.482076
Si 9.864095 10.800619 0.713706
Si 1.378162 10.503463 8.108970
Si 10.207727 4.559247 8.019807
Si 6.678956 6.660054 1.182855
Si 8.822327 1.136248 4.045001
Si 2.724261 7.016818 8.135739
Si 3.702293 0.064241 8.647258
Si 4.411605 4.282137 0.833571
Si 10.629352 8.858549 4.406695
Si 6.513952 5.619138 3.875369
Si 7.501853 7.612778 7.770260
Si 4.341845 9.630347 2.639234
Si 3.529061 1.397659 0.098275
Si 8.048243 3.954191 3.339889
Si 4.680578 2.389292 8.397908
Si 10.777624 2.031658 5.231227
Si 9.166599 3.045897 9.063526
Si 5.849732 0.032745 7.639237
Si 8.882739 2.409009 0.313127
Si 4.636406 7.464228 0.996619
Si 4.561965 1.912746 2.122565
Si 1.659249 5.294190 7.361477
Si 8.547043 7.355902 3.782996
Si 8.738378 10.053386 6.191075
Si 9.069257 1.688451 7.103312
Si 0.314652 6.650191 5.998329
Si 0.946525 4.335610 3.936933
Si 7.488224 2.917889 6.199328
Si 4.097241 2.910005 4.581958
Si 7.020815 2.092623 2.341905
Si 9.016997 4.938540 1.214391
Si 3.076735 3.858618 9.229009
Si 10.775369 0.951455 9.161186
64
Step 2320
Si 8.233328 9.069245 10.456260
Si 7.780371 0.241790 8.956199
Si 6.802313 10.449224 2.781060
Si 2.656500 4.391912 2.580994
Si 7.919249 5.380056 7.039070
Si 9.884175 7.709459 9.643333
Si 10.313584 5.689738 10.320050
Si 6.181985 1.947625 10.429044
Si 1.212387 8.076829 9.850399
Si 1.660341 8.451068 3.449661
Si 1.423012 2.286026 10.610119
Si 10.190501 5.938117 2.932630
Si 6.168988 7.861758 9.620051
Si 0.029115 2.861702 2.017492
Si 4.296516 6.473636 3.117587
Si 5.840822 6.519449 6.161277
Si 4.476648 4.423263 6.548194
Si 8.117861 8.836502 1.973531
Si 6.202110 1.205420 4.947766
Si 2.925657 9.494882 0.395656
Si 2.107618 5.645928 0.249400
Si 3.331691 9.007286 6.958841
Si 4.964929 6.084067 8.723605
Si 0.503370 0.360919 2.860603
Si 1.273033 10.705276 5.764079
Si 6.459829 4.172387 10.730383
Si 2.965170 0.303579 4.183499
Si 6.980463 8.586212 5.202456
Si 2.512674 7.199107 4.910663
Si 1.856566 2.776201 6.070470
Si 5.067411 10.078523 5.467566
Si 9.833585 10.765232 0.637527
Si 1.268488 10.430133 8.024267
Si 10.148377 4.720831 8.027251
Si 6.893693 6.627310 1.177988
Si 8.852648 1.015960 4.194174
Si 2.744108 7.262094 8.062942
Si 3.548714 0.057533 8.713019
Si 4.491182 4.416414 0.775371
Si 10.543842 8.771523 4.464221
Si 6.657730 5.599579 3.931539
Si 7.553192 7.597692 7.859872
Si 4.310108 9.548726 2.586544
Si 3.731015 1.371515 0.056773
Si 8.088515 3.954516 3.310391
Si 4.756837 2.358410 8.431524
Si 10.710236 1.894972 5.183637
Si 9.182794 3.078690 8.927142
Si 5.915944 0.036413 7.529449
Si 8.853038 2.474748 0.308926
Si 4.678692 7.374018 1.005359
Si 4.582640 1.892889 2.282995
Si 1.727854 5.192378 7.247904
Si 8.419975 7.344894 3.849035
Si 8.781636 10.221577 6.324007
Si 9.065790 1.559033 7.114689
Si 0.365596 6.598795 6.064162
Si 1.021473 4.355859 3.940249
Si 7.402218 2.922312 6.173372
Si 4.094615 3.008776 4.497615
Si 6.981897 2.240829 2.424518
Si 9.043300 4.942227 1.144791
Si 3.090373 3.872035 9.245521
Si 10.767688 0.986891 9.115272
64
Step 2330
Si 8.294344 9.051164 10.450178
Si 7.745429 0.281162 9.058126
Si 6.628872 10.506940 2.694542
Si 2.789828 4.375111 2.640323
Si 7.888783 5.360970 7.037187
Si 9.906189 7.689556 9.538571
Si 10.286109 5.717984 10.350657
Si 6.101525 1.705727 10.436018
Si 1.407163 8.274597 9.742753
Si 1.726690 8.441735 3.457628
Si 1.360819 2.325005 10.575341
Si 10.085372 6.034899 3.240725
Si 6.160211 7.825915 9.626012
Si 10.723809 2.766317 2.012373
Si 4.233234 6.364637 3.218253
Si 5.832516 6.615977 6.040323
Si 4.434551 4.479399 6.599902
Si 8.319007 8.774802 2.014203
Si 6.153830 1.296424 4.800696
Si 3.044488 9.628466 0.210768
Si 2.080180 5.675346 0.273145
Si 3.374699 8.939274 6.996835
Si 4.931098 6.144429 8.787418
Si 0.409999 0.053621 2.916719
Si 1.255370 10.669944 5.649628
Si 6.414338 4.095432 10.756161
Si 2.997740 0.331232 4.084771
Si 6.911220 8.478683 5.010676
Si 2.461718 7.288436 4.977713
Si 1.710619 2.944260 6.064937
Si 5.116894 9.936982 5.402035
Si 9.819215 10.793852 0.562679
Si 1.126857 10.336941 8.009222
Si 10.084067 4.965100 8.018019
Si 7.182688 6.606541 1.165339
Si 8.873937 0.858058 4.205257
Si 2.757025 7.398235 8.103181
Si 3.394017 0.021105 8.803483
Si 4.535817 4.523344 0.732621
Si 10.426253 8.716315 4.573645
Si 6.756489 5.650407 3.965627
Si 7.662930 7.608736 7.934817
Si 4.267940 9.517240 2.588259
Si 3.887324 1.301650 0.096025
Si 8.147746 3.882044 3.387465
Si 4.845909 2.384684 8.377612
Si 10.714748 1.843266 5.129851
Si 9.177717 3.038094 8.826144
Si 6.016341 0.033457 7.500284
Si 8.865089 2.487527 0.305216
Si 4.673542 7.259351 1.011468
Si 4.583808 1.827916 2.416022
Si 1.860624 5.013870 7.181319
Si 8.350506 7.352683 3.900727
Si 8.797262 10.290019 6.379507
Si 9.074159 1.517164 7.211768
Si 0.401801 6.570585 6.019588
Si 0.979981 4.448235 4.005303
Si 7.287706 3.011784 6.093270
Si 4.104768 3.098341 4.451408
Si 6.942769 2.377458 2.450211
Si 9.047292 4.990052 1.071576
Si 3.078122 3.901565 9.289416
Si 10.796918 1.021945 9.153039
64
Step 2340
Si 8.337333 9.054000 10.478893
Si 7.700420 0.313359 9.196251
Si 6.498224 10.512328 2.587250
Si 2.919119 4.366694 2.718845
Si 7.896731 5.345460 7.034651
Si 9.942701 7.677385 9.428602
Si 10.359650 5.750527 10.315758
Si 6.076207 1.495131 10.452345
Si 1.589662 8.453207 9.654909
Si 1.772632 8.463748 3.378101
Si 1.323232 2.399146 10.572339
Si 10.067153 6.069919 3.567484
Si 6.160977 7.817740 9.675114
Si 10.588490 2.650606 2.062787
Si 4.179074 6.276681 3.385326
Si 5.760362 6.699346 5.922324
Si 4.437167 4.518603 6.659297
Si 8.493910 8.755254 2.025545
Si 6.147477 1.413748 4.771414
Si 3.175756 9.696949 0.059663
Si 1.976464 5.757007 0.274155
Si 3.498910 9.035036 6.861249
Si 4.852312 6.129157 8.840638
Si 0.302683 10.640069 2.875043
Si 1.291475 10.602196 5.603897
Si 6.464216 4.032886 10.777403
Si 3.044444 0.389427 3.989468
Si 6.791620 8.476131 4.916463
Si 2.503807 7.293098 5.042624
Si 1.581932 3.120931 5.999594
Si 5.145997 9.774858 5.371678
Si 9.840693 0.035212 0.506986
Si 1.020327 10.226447 7.996494
Si 9.998646 5.223658 8.006871
Si 7.444464 6.566212 1.135606
Si 8.785922 0.699452 4.140854
Si 2.740306 7.330283 8.308316
Si 3.266673 10.827390 8.801541
Si 4.542106 4.615606 0.690159
Si 10.311049 8.698822 4.735663
Si 6.766196 5.633820 3.953524
Si 7.832889 7.615694 7.954312
Si 4.200995 9.446708 2.543589
Si 4.001843 1.266483 0.214160
Si 8.276086 3.800610 3.510772
Si 4.935452 2.415003 8.261408
Si 10.776576 1.894356 5.067998
Si 9.162002 3.016913 8.794893
Si 6.094764 0.021732 7.465564
Si 8.840860 2.469921 0.287818
Si 4.631519 7.172255 1.005200
Si 4.519806 1.759659 2.466339
Si 2.011889 4.823019 7.151613
Si 8.302655 7.401999 3.944656
Si 8.716006 10.223729 6.366666
Si 9.098661 1.555457 7.249009
Si 0.400848 6.515375 5.939039
Si 0.883144 4.558881 4.074113
Si 7.147310 3.123236 5.962716
Si 4.058883 3.183588 4.470061
Si 6.941236 2.477521 2.398756
Si 8.998618 5.046203 1.052781
Si 3.039160 3.918875 9.352200
Si 10.840289 1.039240 9.275199
64
Step 2350
Si 8.387283 9.033901 10.492808
Si 7.666772 0.342800 9.338171
Si 6.434203 10.488038 2.501482
Si 3.009418 4.388488 2.805198
Si 7.910031 5.368824 7.032157
Si 9.989098 7.779955 9.356075
Si 10.471388 5.750412 10.315456
Si 6.110980 1.323523 10.451458
Si 1.655414 8.596430 9.630016
Si 1.837715 8.501144 3.290446
Si 1.337575 2.518273 10.632400
Si 10.057395 6.025513 3.820485
Si 6.228431 7.812186 9.748610
Si 10.491405 2.559204 2.144533
Si 4.136526 6.218615 3.582736
Si 5.614489 6.713574 5.887798
Si 4.503733 4.537631 6.689841
Si 8.652551 8.810631 2.029406
Si 6.152341 1.463360 4.840798
Si 3.341815 9.665455 10.844614
Si 1.850961 5.851219 0.269338
Si 3.572989 9.124861 6.715110
Si 4.740768 6.078936 8.907567
Si 0.193307 10.415600 2.803611
Si 1.330152 10.531153 5.606208
Si 6.525742 3.950385 10.804136
Si 3.075776 0.443285 3.927869
Si 6.727018 8.548641 4.869425
Si 2.590784 7.240412 5.144048
Si 1.493158 3.265888 5.852139
Si 5.077361 9.736368 5.308141
Si 9.863643 0.155959 0.473110
Si 0.927907 10.153573 7.979839
Si 9.939299 5.416500 7.956289
Si 7.561977 6.566460 1.061182
Si 8.640478 0.577004 4.054378
Si 2.771790 7.196096 8.499265
Si 3.224015 10.837108 8.668906
Si 4.526966 4.714371 0.605756
Si 10.241729 8.704490 4.971739
Si 6.733394 5.493716 3.889114
Si 7.982432 7.614701 7.898807
Si 4.107271 9.286024 2.485248
Si 4.061710 1.298105 0.365445
Si 8.419739 3.681875 3.603876
Si 5.004465 2.441990 8.113374
Si 10.809311 1.937503 4.983978
Si 9.125954 3.101675 8.862625
Si 6.164934 0.031275 7.400210
Si 8.774015 2.444952 0.270025
Si 4.575611 7.136759 0.978450
Si 4.411122 1.697922 2.439558
Si 2.159186 4.716746 7.167259
Si 8.259557 7.491925 3.953787
Si 8.563177 10.088722 6.368724
Si 9.078400 1.545397 7.108325
Si 0.401522 6.519824 5.888498
Si 0.871036 4.563444 4.080437
Si 7.023304 3.280730 5.863819
Si 3.914527 3.276585 4.527857
Si 6.996120 2.603055 2.326756
Si 9.063175 5.030960 1.097332
Si 2.999858 3.905544 9.457385
Si 0.081807 0.988293 9.402556
64
Step 2360
Si 8.456991 9.035273 10.500707
Si 7.657684 0.358332 9.402028
Si 6.392158 10.493637 2.458624
Si 3.052698 4.411231 2.804514
Si 7.856845 5.372839 6.993151
Si 10.060196 7.989686 9.308522
Si 10.601779 5.704846 10.348257
Si 6.135324 1.242380 10.438351
Si 1.607300 8.668912 9.706391
Si 1.933409 8.581863 3.230715
Si 1.410937 2.621727 10.742038
Si 9.920837 5.955969 3.952695
Si 6.322620 7.774122 9.812058
Si 10.467057 2.502747 2.231106
Si 4.116936 6.240601 3.758152
Si 5.470556 6.653785 5.914623
Si 4.625811 4.553321 6.723178
Si 8.806706 8.932672 2.018576
Si 6.112440 1.446979 4.870949
Si 3.531624 9.622789 10.820229
Si 1.777638 5.975428 0.245436
Si 3.472272 9.151508 6.701047
Si 4.686841 6.003108 8.973639
Si 0.023425 10.256819 2.774224
Si 1.333986 10.465958 5.599211
Si 6.586932 3.900469 10.831550
Si 3.105230 0.461924 3.866851
Si 6.796904 8.643449 4.843993
Si 2.658502 7.143733 5.241964
Si 1.381991 3.247819 5.704674
Si 4.900514 9.924707 5.164889
Si 9.902533 0.245613 0.474672
Si 0.798119 10.133823 7.958154
Si 9.983462 5.504645 7.866237
Si 7.522935 6.599436 0.984642
Si 8.493836 0.464482 3.970986
Si 2.811494 7.075723 8.658380
Si 3.305020 0.096603 8.494672
Si 4.439458 4.791185 0.516844
Si 10.230759 8.753160 5.242903
Si 6.741279 5.324285 3.803812
Si 8.084555 7.651451 7.787706
Si 4.017809 9.083175 2.461393
Si 4.001244 1.351580 0.373810
Si 8.553670 3.546731 3.659533
Si 5.041423 2.443721 7.990547
Si 10.746536 1.855016 4.863276
Si 9.067451 3.218642 8.915234
Si 6.239818 0.029941 7.303542
Si 8.712538 2.444669 0.228315
Si 4.534686 7.128789 0.975108
Si 4.346472 1.669346 2.508216
Si 2.308590 4.733700 7.269190
Si 8.299866 7.451179 3.887739
Si 8.378396 9.932230 6.372016
Si 9.036883 1.546681 6.912707
Si 0.415676 6.581249 5.943400
Si 0.938678 4.535172 3.937887
Si 6.927708 3.488746 5.839472
Si 3.822956 3.305843 4.635341
Si 7.067221 2.697360 2.308908
Si 9.226887 4.935525 1.231410
Si 2.961795 3.841632 9.590052
Si 0.222110 0.922021 9.497542
64
Step 2370
Si 8.509841 9.076479 10.518224
Si 7.670349 0.310548 9.381464
Si 6.381616 10.505334 2.482832
Si 3.086327 4.421056 2.701621
Si 7.747713 5.360971 6.938828
Si 10.167478 8.179175 9.255310
Si 10.666518 5.629237 10.391754
Si 6.121987 1.247385 10.379361
Si 1.562369 8.748297 9.815460
Si 2.014218 8.669673 3.223468
Si 1.473250 2.653782 10.860555
Si 9.785050 5.797077 4.026867
Si 6.407629 7.709003 9.859461
Si 10.541555 2.439573 2.316833
Si 4.149993 6.310929 3.846960
Si 5.393673 6.582384 6.002969
Si 4.757105 4.562092 6.783980
Si 8.864549 9.044722 2.081885
Si 6.064306 1.422409 4.843053
Si 3.710509 9.653175 10.793383
Si 1.775374 6.111705 0.230777
Si 3.375605 9.125002 6.694795
Si 4.735687 5.950991 8.980892
Si 10.701575 10.147131 2.808205
Si 1.307186 10.400753 5.559018
Si 6.617532 3.936542 0.024118
Si 3.104290 0.475376 3.850594
Si 6.810762 8.780738 4.833700
Si 2.631803 7.042303 5.356951
Si 1.293948 3.184589 5.640511
Si 4.734104 10.161287 5.024724
Si 9.935304 0.321037 0.499239
Si 0.661592 10.136981 7.954239
Si 10.128875 5.506267 7.783175
Si 7.429279 6.579901 0.911516
Si 8.358023 0.367594 3.858116
Si 2.810945 6.954286 8.779154
Si 3.469705 0.270417 8.342336
Si 4.329804 4.823700 0.447406
Si 10.213139 8.835803 5.504639
Si 6.750964 5.232491 3.713764
Si 8.097871 7.721318 7.637288
Si 3.961682 8.887147 2.441292
Si 3.858419 1.372893 0.316586
Si 8.723255 3.419075 3.732266
Si 5.072196 2.398120 7.921061
Si 10.613150 1.652418 4.746717
Si 9.037690 3.366524 8.891457
Si 6.286918 0.062350 7.242772
Si 8.689370 2.496176 0.187457
Si 4.551768 7.123432 1.000932
Si 4.356701 1.690565 2.605390
Si 2.385842 4.815376 7.343115
Si 8.377076 7.342823 3.743724
Si 8.214530 9.755160 6.384509
Si 8.978381 1.606352 6.730130
Si 0.445634 6.658080 6.043026
Si 0.980807 4.585462 3.665262
Si 6.876848 3.637138 5.888592
Si 3.748836 3.251032 4.800298
Si 7.004537 2.673444 2.326108
Si 9.430066 4.888907 1.361508
Si 2.947756 3.728965 9.717047
Si 0.417139 0.921039 9.555312
64
Step 2380
Si 8.558277 9.141257 10.545649
Si 7.689779 0.284400 9.347006
Si 6.322344 10.452319 2.495048
Si 3.140573 4.442923 2.566779
Si 7.717117 5.406411 6.951672
Si 10.246448 8.296005 9.174062
Si 10.705921 5.539909 10.389606
Si 6.100498 1.317766 10.310630
Si 1.570551 8.797415 9.955703
Si 2.009737 8.783457 3.290903
Si 1.477053 2.659743 0.161272
Si 9.751960 5.575494 4.112927
Si 6.476793 7.630475 9.865620
Si 10.706321 2.360521 2.362982
Si 4.225651 6.350091 3.856691
Si 5.416339 6.619928 6.072124
Si 4.829747 4.487487 6.866475
Si 8.806539 9.044364 2.155089
Si 6.067192 1.480044 4.812000
Si 3.849431 9.697107 10.731419
Si 1.795834 6.213357 0.199791
Si 3.248366 9.078575 6.720180
Si 4.931246 5.940624 8.989918
Si 10.596475 10.047296 2.931049
Si 1.286969 10.314235 5.465600
Si 6.569988 4.050675 0.112652
Si 3.060191 0.467071 3.853247
Si 6.770061 8.880206 4.764625
Si 2.533893 6.980308 5.480408
Si 1.244620 3.151053 5.556982
Si 4.585361 10.340270 4.891591
Si 9.964258 0.397832 0.459044
Si 0.561348 10.167052 7.941819
Si 10.299945 5.519807 7.749611
Si 7.338117 6.498730 0.899391
Si 8.211699 0.305600 3.780145
Si 2.748690 6.949418 8.887726
Si 3.672297 0.432563 8.243807
Si 4.249281 4.782124 0.429531
Si 10.210996 8.912171 5.708587
Si 6.707408 5.202362 3.619415
Si 8.091717 7.732860 7.544868
Si 4.011735 8.748801 2.404709
Si 3.720119 1.381940 0.244097
Si 8.866390 3.294156 3.853463
Si 5.077202 2.309685 7.922601
Si 10.509484 1.400281 4.682745
Si 9.022094 3.524422 8.801277
Si 6.320740 0.142972 7.242644
Si 8.700356 2.552238 0.133771
Si 4.604446 7.098358 1.019877
Si 4.398231 1.763996 2.631283
Si 2.353067 4.887475 7.376486
Si 8.392115 7.275994 3.572503
Si 8.101353 9.628270 6.424124
Si 8.837579 1.672618 6.588074
Si 0.425420 6.756081 6.129174
Si 0.979665 4.622495 3.382235
Si 6.872894 3.663871 5.898231
Si 3.661662 3.173194 4.970707
Si 6.874999 2.615572 2.334564
Si 9.611072 4.893868 1.437179
Si 2.978537 3.623913 9.783154
Si 0.641813 0.960483 9.635445
64
Step 2390
Si 8.589139 9.200035 10.525120
Si 7.718470 0.244830 9.337987
Si 6.139656 10.374168 2.409447
Si 3.199216 4.462820 2.433165
Si 7.796637 5.501531 7.017778
Si 10.257797 8.343987 9.097076
Si 10.726435 5.465082 10.326388
Si 6.088699 1.433298 10.317439
Si 1.619130 8.833599 10.126700
Si 1.949581 8.858767 3.364057
Si 1.415514 2.641273 0.384515
Si 9.763654 5.378953 4.245661
Si 6.578333 7.571432 9.818975
Si 0.057230 2.274743 2.305179
Si 4.300562 6.376680 3.835995
Si 5.477209 6.753964 6.135375
Si 4.852081 4.351751 6.959138
Si 8.716594 8.981527 2.144256
Si 6.094134 1.598364 4.865833
Si 3.968755 9.718319 10.644560
Si 1.857440 6.289779 0.167150
Si 3.118089 9.026666 6.795888
Si 5.157814 5.978578 9.002637
Si 10.570729 9.987553 3.071641
Si 1.221240 10.242061 5.379976
Si 6.484581 4.200041 0.222203
Si 2.883430 0.525468 3.781320
Si 6.635274 8.839824 4.642287
Si 2.454033 6.944111 5.551301
Si 1.232911 3.138509 5.454775
Si 4.604277 10.416093 4.856664
Si 9.990776 0.463924 0.387496
Si 0.499684 10.253751 7.942891
Si 10.468869 5.542384 7.809388
Si 7.279190 6.353369 0.975474
Si 8.055837 0.304668 3.774382
Si 2.721242 6.980422 8.993754
Si 3.814299 0.518636 8.215451
Si 4.191378 4.698622 0.459757
Si 10.226841 8.940490 5.875199
Si 6.650307 5.219282 3.517206
Si 8.087127 7.679995 7.592894
Si 4.113389 8.684521 2.391777
Si 3.639097 1.337102 0.174310
Si 8.947535 3.183480 3.984794
Si 5.052660 2.292749 7.975706
Si 10.485328 1.148146 4.685588
Si 8.989001 3.652064 8.662405
Si 6.412198 0.236309 7.247573
Si 8.724939 2.609420 0.056505
Si 4.670152 7.050713 0.956344
Si 4.443218 1.862383 2.575547
Si 2.287921 4.934198 7.415985
Si 8.350835 7.179687 3.414152
Si 8.058670 9.596676 6.459433
Si 8.616523 1.771465 6.510737
Si 0.329760 6.901110 6.122870
Si 0.973365 4.632772 3.116474
Si 6.893829 3.594440 5.859065
Si 3.534822 3.088134 5.110628
Si 6.733527 2.582778 2.294153
Si 9.752961 4.901984 1.490159
Si 3.065408 3.576244 9.710003
Si 0.856671 0.996266 9.743398
64
Step 2400
Si 8.592920 9.236809 10.474554
Si 7.770163 0.203258 9.309901
Si 5.901367 10.318128 2.242353
Si 3.242876 4.432103 2.393321
Si 7.886861 5.570303 7.079755
Si 10.224246 8.334092 9.023919
Si 10.744198 5.388738 10.248266
Si 6.039761 1.603141 10.382648
Si 1.667716 8.924963 10.304352
Si 1.899337 8.837981 3.392774
Si 1.367604 2.678462 0.613714
Si 9.797233 5.218856 4.414346
Si 6.745673 7.609780 9.767889
Si 0.251062 2.174766 2.226719
Si 4.390221 6.364897 3.809601
Si 5.554196 6.919307 6.177189
Si 4.819886 4.224712 7.071116
Si 8.595941 8.903569 2.112422
Si 6.080875 1.715612 4.952283
Si 4.130799 9.763434 10.559978
Si 1.946605 6.319579 0.165017
Si 2.999750 9.004717 6.906960
Si 5.337675 5.984099 8.984553
Si 10.532068 9.945407 3.105937
Si 1.198973 10.187633 5.416170
Si 6.406879 4.310870 0.331489
Si 2.731497 0.666706 3.689171
Si 6.485994 8.694385 4.514921
Si 2.380308 6.951074 5.587807
Si 1.178410 3.134182 5.334760
Si 4.658203 10.426122 4.852366
Si 10.044619 0.512717 0.330898
Si 0.494303 10.376396 7.968618
Si 10.653288 5.612568 7.920128
Si 7.273106 6.164688 1.086902
Si 7.901982 0.358110 3.800663
Si 2.727379 6.958020 8.994205
Si 3.870703 0.512464 8.258668
Si 4.149602 4.646492 0.514414
Si 10.201252 8.967054 6.032518
Si 6.581732 5.198904 3.425284
Si 8.095121 7.645339 7.733441
Si 4.212555 8.717775 2.443195
Si 3.587135 1.244216 0.101817
Si 8.992027 3.100264 4.082339
Si 4.998650 2.351903 8.090337
Si 10.477796 0.996505 4.739395
Si 8.942242 3.729233 8.529781
Si 6.582845 0.292819 7.255711
Si 8.703322 2.689185 10.838799
Si 4.746251 7.018774 0.852213
Si 4.439013 1.961172 2.503621
Si 2.256186 4.955354 7.478828
Si 8.282497 7.103800 3.268973
Si 8.019439 9.594308 6.465503
Si 8.423979 1.859976 6.485044
Si 0.206390 7.003491 6.042603
Si 0.994264 4.615161 2.865259
Si 6.917079 3.569753 5.790527
Si 3.457420 2.971649 5.184544
Si 6.633058 2.595558 2.206224
Si 9.828793 4.892404 1.466109
Si 3.161750 3.525008 9.533126
Si 1.030929 0.933246 9.848048
64
Step 2410
Si 8.633037 9.303010 10.445244
Si 7.786480 0.217659 9.307664
Si 5.693132 10.342016 2.033375
Si 3.294912 4.359970 2.513046
Si 7.969453 5.602478 7.100086
Si 10.208590 8.289636 8.979924
Si 10.811878 5.331696 10.215722
Si 6.023466 1.770355 10.449081
Si 1.708938 9.092089 10.447486
Si 1.939941 8.800766 3.396635
Si 1.430579 2.815461 0.683001
Si 9.840052 5.144689 4.614782
Si 6.938923 7.716454 9.727889
Si 0.322205 1.996992 2.348554
Si 4.473455 6.330819 3.796012
Si 5.586586 7.046190 6.204792
Si 4.747152 4.241482 7.100100
Si 8.466095 8.885636 2.084282
Si 5.913548 1.810331 4.930855
Si 4.303266 9.743175 10.515368
Si 1.969394 6.293118 0.205556
Si 2.915922 9.014746 7.034932
Si 5.460570 5.943740 8.890202
Si 10.426709 9.917344 2.992273
Si 1.280076 10.213036 5.537943
Si 6.347208 4.285123 0.358076
Si 2.579059 0.835325 3.591901
Si 6.372137 8.507620 4.426174
Si 2.387549 6.967056 5.602982
Si 1.025228 3.154723 5.177127
Si 4.611708 10.398258 4.871185
Si 10.051383 0.487696 0.297026
Si 0.553983 10.499488 8.058336
Si 10.857837 5.737089 8.019483
Si 7.324632 6.040156 1.200881
Si 7.750384 0.402793 3.838487
Si 2.808352 6.939728 8.901905
Si 3.854885 0.393669 8.302997
Si 4.143778 4.652127 0.462246
Si 10.119309 9.056730 6.161730
Si 6.508797 5.094553 3.410409
Si 8.078608 7.629800 7.893308
Si 4.267859 8.764695 2.511685
Si 3.564265 1.106578 0.108055
Si 9.029496 3.007132 4.074407
Si 4.983625 2.386418 8.276109
Si 10.493360 0.950800 4.818644
Si 8.913640 3.766995 8.440369
Si 6.764450 0.298514 7.281829
Si 8.649705 2.788908 10.800562
Si 4.789827 7.060731 0.759992
Si 4.375723 2.029094 2.455070
Si 2.260607 4.932881 7.511278
Si 8.261216 7.028383 3.151903
Si 7.942815 9.605651 6.377589
Si 8.361190 1.918049 6.568682
Si 0.035494 6.926921 5.942003
Si 0.996586 4.615610 2.682330
Si 6.887634 3.665313 5.649556
Si 3.496423 2.851767 5.197673
Si 6.604059 2.541787 2.157460
Si 9.836786 4.873415 1.418765
Si 3.220753 3.511994 9.363360
Si 1.191298 0.785530 9.907606
64
Step 2420
Si 8.701793 9.340759 10.492569
Si 7.775067 0.290929 9.390103
Si 5.575801 10.407190 1.886472
Si 3.371713 4.283371 2.689907
Si 8.000428 5.594652 7.062288
Si 10.268286 8.268775 8.948987
Si 0.044842 5.268033 10.253604
Si 6.001947 1.873715 10.464902
Si 1.808162 9.217125 10.565230
Si 1.998701 8.793669 3.428418
Si 1.581683 2.996201 0.613980
Si 9.864575 5.120562 4.809641
Si 7.072377 7.767792 9.761432
Si 0.336181 1.732012 2.580045
Si 4.531963 6.274497 3.784104
Si 5.614292 7.079448 6.290016
Si 4.762580 4.352523 6.976273
Si 8.287870 8.946186 2.113198
Si 5.666775 1.862092 4.873140
Si 4.417034 9.682720 10.508885
Si 1.974126 6.234489 0.220760
Si 2.862676 9.036935 7.178135
Si 5.514130 5.911484 8.814859
Si 10.281594 9.914407 2.807447
Si 1.413241 10.280900 5.667491
Si 6.279454 4.192131 0.257423
Si 2.410723 0.975668 3.504458
Si 6.308589 8.393358 4.364165
Si 2.492016 6.972169 5.605937
Si 0.870210 3.196563 4.995812
Si 4.501554 10.367835 4.883144
Si 10.063962 0.502493 0.293822
Si 0.630299 10.585103 8.164622
Si 0.201028 5.889596 8.081645
Si 7.434445 6.009042 1.260662
Si 7.651928 0.429974 3.831446
Si 2.919346 6.939586 8.776665
Si 3.803823 0.187177 8.315508
Si 4.098687 4.668973 0.332852
Si 10.057217 9.114076 6.263200
Si 6.412436 4.923148 3.513217
Si 8.077448 7.631450 7.923257
Si 4.282839 8.790590 2.575634
Si 3.552480 0.990554 0.190392
Si 9.050048 2.922556 3.983302
Si 5.023540 2.400273 8.452612
Si 10.484578 0.941771 4.914450
Si 8.897798 3.795951 8.361430
Si 6.840675 0.316243 7.291203
Si 8.614253 2.871073 10.784323
Si 4.823827 7.164794 0.627014
Si 4.277310 2.048337 2.396802
Si 2.246993 4.940015 7.473844
Si 8.281290 6.950882 3.083470
Si 7.816518 9.556860 6.192173
Si 8.418623 2.023904 6.692521
Si 10.718207 6.778945 5.831078
Si 0.983087 4.683499 2.564093
Si 6.823901 3.856348 5.498287
Si 3.559712 2.770602 5.217267
Si 6.639291 2.401304 2.197576
Si 9.779330 4.855112 1.380487
Si 3.189238 3.536271 9.367409
Si 1.339466 0.617294 9.958900
64
Step 2430
Si 8.777697 9.357584 10.581168
Si 7.740687 0.412817 9.514684
Si 5.577270 10.495719 1.802996
Si 3.438359 4.171771 2.873159
Si 8.015958 5.536510 6.980145
Si 10.413106 8.276048 8.936439
Si 0.130290 5.175045 10.325519
Si 5.993584 1.905468 10.429193
Si 1.961569 9.152972 10.662890
Si 2.038319 8.830878 3.512304
Si 1.705342 3.206075 0.530059
Si 9.831492 5.027699 4.913479
Si 7.077819 7.758270 9.951018
Si 0.367771 1.437827 2.690968
Si 4.561612 6.261041 3.787035
Si 5.589891 7.076837 6.420965
Si 4.782577 4.472360 6.788349
Si 8.065106 9.046552 2.198719
Si 5.492362 1.845684 4.874006
Si 4.496631 9.573647 10.481073
Si 2.033047 6.262733 0.225758
Si 2.875823 9.022618 7.279367
Si 5.526758 5.922686 8.801399
Si 10.143566 9.950582 2.633916
Si 1.605883 10.342427 5.754925
Si 6.219087 4.170087 0.142854
Si 2.285411 1.049738 3.439476
Si 6.295268 8.363049 4.304837
Si 2.641615 7.010395 5.584422
Si 0.790606 3.285669 4.886470
Si 4.360904 10.318074 4.888451
Si 10.066275 0.598688 0.378920
Si 0.697887 10.625997 8.153671
Si 0.349273 6.071996 8.114825
Si 7.527970 6.002198 1.272732
Si 7.569878 0.359932 3.798696
Si 3.039840 6.968508 8.668892
Si 3.727773 10.812023 8.329536
Si 4.059558 4.719415 0.204784
Si 10.048911 9.147176 6.337988
Si 6.319286 4.727540 3.583380
Si 8.119591 7.644710 7.787569
Si 4.249952 8.748712 2.673552
Si 3.549748 0.923247 0.323091
Si 8.963566 2.889162 3.850108
Si 5.073407 2.366333 8.585112
Si 10.403472 0.885819 5.081232
Si 8.897614 3.824982 8.288006
Si 6.894296 0.361740 7.277412
Si 8.633025 2.924442 10.760047
Si 4.837869 7.233573 0.439666
Si 4.114656 2.085200 2.307326
Si 2.264168 4.951446 7.398651
Si 8.317370 6.866906 3.022361
Si 7.629536 9.526446 5.973298
Si 8.487784 2.155691 6.793334
Si 10.609236 6.743817 5.806253
Si 0.975789 4.786051 2.436233
Si 6.773741 4.023975 5.400818
Si 3.566855 2.790556 5.251403
Si 6.721574 2.242263 2.279975
Si 9.675274 4.812179 1.352876
Si 3.096137 3.524541 9.395317
Si 1.487285 0.519863 10.060878
64
Step 2440
Si 8.828712 9.356590 10.669182
Si 7.707453 0.546718 9.618854
Si 5.664809 10.558698 1.751595
Si 3.483915 4.117207 3.043327
Si 8.027132 5.436569 6.882038
Si 10.606273 8.284245 8.977274
Si 0.209629 5.101626 10.337714
Si 5.992100 1.866651 10.423876
Si 2.091408 8.966492 10.691547
Si 2.053185 8.892973 3.626682
Si 1.764798 3.327593 0.461884
Si 9.722126 4.889359 4.921640
Si 7.077356 7.729471 10.149277
Si 0.312573 1.198282 2.727050
Si 4.568144 6.269075 3.824867
Si 5.541171 7.112361 6.552638
Si 4.745610 4.544911 6.595667
Si 7.827048 9.145972 2.277496
Si 5.373230 1.716069 4.914356
Si 4.618803 9.428588 10.420202
Si 2.124886 6.405547 0.221347
Si 2.916012 8.928128 7.338723
Si 5.541263 5.967675 8.771721
Si 10.037565 9.996266 2.502986
Si 1.803634 10.384774 5.806072
Si 6.201862 4.185953 0.035940
Si 2.253422 1.043072 3.436696
Si 6.286896 8.349607 4.268667
Si 2.783992 7.091497 5.551163
Si 0.748215 3.392727 4.802585
Si 4.225464 10.318973 4.874102
Si 10.078665 0.745660 0.480648
Si 0.717720 10.668150 8.129619
Si 0.407505 6.263509 8.109025
Si 7.575793 5.967578 1.214266
Si 7.490988 0.243197 3.805143
Si 3.191750 7.050413 8.659500
Si 3.706138 10.616964 8.354488
Si 4.079033 4.835215 0.162875
Si 10.062956 9.193023 6.377364
Si 6.215320 4.613125 3.411465
Si 8.142503 7.701450 7.653208
Si 4.202676 8.679236 2.775692
Si 3.508826 0.913138 0.411105
Si 8.860528 2.824158 3.712251
Si 5.086432 2.286953 8.582300
Si 10.260998 0.800035 5.253700
Si 8.904513 3.860918 8.285126
Si 6.949312 0.517094 7.293934
Si 8.710315 2.971356 10.694331
Si 4.819395 7.296199 0.275473
Si 3.940754 2.095940 2.226694
Si 2.304558 4.924663 7.281450
Si 8.378149 6.782224 3.046557
Si 7.432765 9.506362 5.752893
Si 8.527931 2.212350 6.845697
Si 10.630374 6.830140 5.891210
Si 0.949798 4.870740 2.366947
Si 6.827732 4.086397 5.529359
Si 3.496089 2.870854 5.335998
Si 6.824667 2.130577 2.348040
Si 9.541104 4.742634 1.309498
Si 3.015336 3.437220 9.321574
Si 1.604699 0.492848 10.209390
64
Step 2450
Si 8.892110 9.333806 10.745818
Si 7.708280 0.655345 9.639776
Si 5.718919 10.609840 1.649644
Si 3.461197 4.085568 3.165452
Si 8.034740 5.410615 6.817064
Si 10.791704 8.356477 9.131818
Si 0.262630 5.111899 10.291041
Si 5.959918 1.809724 10.513803
Si 2.140487 8.743763 10.683392
Si 2.001473 8.986275 3.725632
Si 1.790345 3.370474 0.420158
Si 9.626954 4.823389 4.891849
Si 7.148266 7.719181 10.328580
Si 0.141508 1.059751 2.790359
Si 4.551918 6.289252 3.907189
Si 5.475646 7.162774 6.642441
Si 4.734459 4.544994 6.366867
Si 7.649806 9.203898 2.275783
Si 5.302466 1.546045 4.945673
Si 4.774804 9.330452 10.347987
Si 2.170327 6.580957 0.251494
Si 2.952613 8.759053 7.349828
Si 5.580753 5.990306 8.717881
Si 9.909947 9.967637 2.428458
Si 1.938939 10.459885 5.819721
Si 6.289215 4.173836 10.841750
Si 2.313634 0.985784 3.529042
Si 6.257633 8.232148 4.247296
Si 2.904975 7.119103 5.502193
Si 0.700794 3.461952 4.685359
Si 4.162071 10.389250 4.846697
Si 10.086004 0.931328 0.499827
Si 0.698492 10.723484 8.156123
Si 0.457002 6.410109 8.090281
Si 7.562495 5.891470 1.131630
Si 7.463209 0.181413 3.889555
Si 3.330893 7.113594 8.669139
Si 3.785753 10.558133 8.442694
Si 4.108426 4.933781 0.165409
Si 10.059011 9.236450 6.367214
Si 6.186814 4.535798 3.163605
Si 8.177631 7.755717 7.535496
Si 4.153945 8.606278 2.820677
Si 3.530172 0.889121 0.415899
Si 8.781537 2.749743 3.576641
Si 5.009690 2.243424 8.434475
Si 10.093576 0.744332 5.422443
Si 8.903571 3.890535 8.344549
Si 7.004157 0.674810 7.342964
Si 8.781884 3.014863 10.613723
Si 4.801288 7.371484 0.246406
Si 3.793093 2.130179 2.170033
Si 2.338686 4.903987 7.176686
Si 8.422144 6.688509 3.143993
Si 7.275588 9.549623 5.645348
Si 8.593847 2.173081 6.842815
Si 10.676003 6.907890 5.979280
Si 0.934040 4.931916 2.360900
Si 6.879925 4.064039 5.682855
Si 3.389661 2.978040 5.438978
Si 6.883807 2.109486 2.361405
Si 9.413227 4.624900 1.281486
Si 3.020667 3.286244 9.169385
Si 1.639240 0.506792 10.364031
64
Step 2460
Si 8.986537 9.317260 10.752706
Si 7.750831 0.710736 9.615880
Si 5.707162 10.621287 1.515631
Si 3.383543 4.057579 3.238949
Si 8.081591 5.502978 6.871379
Si 0.062644 8.507960 9.312212
Si 0.298563 5.165799 10.225466
Si 5.922471 1.774195 10.591971
Si 2.045967 8.699571 10.663462
Si 1.911588 9.024296 3.778084
Si 1.828666 3.375410 0.375158
Si 9.587923 4.815897 4.812034
Si 7.316234 7.694193 10.466493
Si 10.795870 1.044561 2.968691
Si 4.514312 6.282714 3.990375
Si 5.500762 7.241188 6.710394
Si 4.771338 4.542902 6.174361
Si 7.512432 9.190630 2.190542
Si 5.274002 1.435617 4.971352
Si 4.918852 9.423284 10.210282
Si 2.111272 6.606860 0.377814
Si 2.952144 8.671506 7.250743
Si 5.709245 5.965453 8.654939
Si 9.766440 9.856379 2.401747
Si 1.944360 10.571927 5.883927
Si 6.398734 4.147303 10.798451
Si 2.326106 0.939885 3.662329
Si 6.211124 8.001021 4.207654
Si 2.925067 7.108550 5.436187
Si 0.689245 3.443521 4.530688
Si 4.224245 10.451576 4.819049
Si 10.106429 1.146829 0.437052
Si 0.686803 10.743426 8.175878
Si 0.546821 6.507720 8.116761
Si 7.487004 5.828453 1.032056
Si 7.518694 0.199114 4.073214
Si 3.415695 7.091078 8.681520
Si 3.855259 10.558088 8.593677
Si 4.129666 4.942645 0.208996
Si 10.037801 9.271262 6.346679
Si 6.226720 4.452459 2.936526
Si 8.211029 7.783590 7.452396
Si 4.086156 8.554383 2.783029
Si 3.660617 0.915992 0.373099
Si 8.772820 2.705148 3.427481
Si 4.895343 2.211366 8.258161
Si 9.935420 0.751897 5.557576
Si 8.902217 3.932332 8.432797
Si 7.060162 0.795368 7.361870
Si 8.848288 3.037772 10.499435
Si 4.872497 7.312175 0.432716
Si 3.694134 2.228036 2.167665
Si 2.367722 4.890877 7.138226
Si 8.428848 6.590981 3.295738
Si 7.183505 9.663252 5.707032
Si 8.685134 2.088863 6.813399
Si 10.708403 6.993945 6.036202
Si 0.932220 4.973798 2.341204
Si 6.846796 3.905051 5.711237
Si 3.243932 3.052182 5.503390
Si 6.872348 2.144241 2.359451
Si 9.329954 4.464988 1.286285
Si 3.028870 3.157209 8.983081
Si 1.577425 0.497431 10.463206
64
Step 2470
Si 9.128554 9.326560 10.690811
Si 7.812573 0.765896 9.550569
Si 5.690056 10.582013 1.443358
Si 3.286546 4.122522 3.288560
Si 8.116337 5.595486 6.964968
Si 0.157651 8.648966 9.477997
Si 0.275575 5.234223 10.119525
Si 5.916026 1.773977 10.603061
Si 1.922693 8.778091 10.606889
Si 1.838894 9.002134 3.840575
Si 1.884598 3.370236 0.317030
Si 9.502754 4.842311 4.730296
Si 7.490720 7.680688 10.550881
Si 10.590446 1.069849 3.201431
Si 4.476486 6.195754 4.053986
Si 5.623470 7.330489 6.755918
Si 4.887762 4.566461 6.059325
Si 7.352717 9.130568 2.127886
Si 5.375830 1.466438 5.034532
Si 5.069773 9.418853 10.067526
Si 2.021889 6.526268 0.546860
Si 2.946403 8.679573 7.094844
Si 5.894664 5.920457 8.624745
Si 9.610520 9.769226 2.370647
Si 1.828880 10.698831 6.017770
Si 6.438895 4.051990 10.702538
Si 2.283648 0.949431 3.740761
Si 6.222950 7.791038 4.174586
Si 2.808374 7.119961 5.334799
Si 0.700798 3.384468 4.337405
Si 4.314372 10.380732 4.790685
Si 10.105628 1.327657 0.347751
Si 0.678525 10.725899 8.161190
Si 0.688321 6.589426 8.237653
Si 7.424054 5.813701 0.958289
Si 7.614986 0.247654 4.239376
Si 3.456843 7.059780 8.815597
Si 3.861642 10.592352 8.721209
Si 4.138596 4.883330 0.274377
Si 10.027769 9.351291 6.331723
Si 6.264784 4.375084 2.754429
Si 8.230092 7.809162 7.413565
Si 4.039351 8.554900 2.688087
Si 3.744937 1.011821 0.306602
Si 8.832358 2.735675 3.329373
Si 4.765259 2.155766 8.065048
Si 9.833621 0.751313 5.602796
Si 8.926775 3.980866 8.468055
Si 7.043151 0.899100 7.404716
Si 8.942179 3.047428 10.385210
Si 4.959059 7.264139 0.664315
Si 3.609914 2.272940 2.200226
Si 2.357902 4.912709 7.165922
Si 8.407491 6.485840 3.454924
Si 7.091613 9.733220 5.860144
Si 8.763063 2.099518 6.837869
Si 10.768228 7.068517 6.057092
Si 0.943972 4.983553 2.299990
Si 6.869475 3.673769 5.638249
Si 3.084189 3.044346 5.492339
Si 6.746098 2.153061 2.352660
Si 9.309236 4.300437 1.331211
Si 3.058974 3.042195 8.824188
Si 1.525066 0.464048 10.541046
64
Step 2480
Si 9.287173 9.375679 10.609339
Si 7.881214 0.798045 9.540079
Si 5.687075 10.492428 1.417750
Si 3.237229 4.223674 3.298235
Si 8.165360 5.656853 7.035649
Si 0.158243 8.724259 9.537598
Si 0.223991 5.295218 9.999773
Si 5.952024 1.776701 10.561928
Si 1.945318 8.848816 10.575525
Si 1.764618 8.965054 3.899339
Si 1.934738 3.356946 0.192080
Si 9.390432 4.918131 4.670853
Si 7.621309 7.703565 10.541602
Si 10.388587 1.074459 3.382532
Si 4.441438 6.053514 4.101020
Si 5.711461 7.431170 6.771734
Si 5.035049 4.680163 6.034039
Si 7.180545 9.003021 2.123356
Si 5.544940 1.551683 5.088193
Si 5.209711 9.292508 9.936455
Si 2.025458 6.448589 0.726250
Si 3.002907 8.687145 6.961896
Si 6.070628 5.888583 8.647459
Si 9.468639 9.732725 2.316509
Si 1.660361 10.819357 6.151365
Si 6.392975 3.949844 10.575271
Si 2.244135 0.981915 3.767263
Si 6.288572 7.629962 4.138346
Si 2.603072 7.151443 5.260978
Si 0.697086 3.329663 4.155832
Si 4.401150 10.198963 4.756422
Si 10.165687 1.424169 0.335197
Si 0.691088 10.686666 8.167116
Si 0.825759 6.718833 8.362353
Si 7.407466 5.817751 0.937722
Si 7.748418 0.334281 4.300770
Si 3.483145 7.010541 9.027219
Si 3.825127 10.627512 8.827418
Si 4.103543 4.830706 0.336428
Si 10.015821 9.425621 6.321890
Si 6.262309 4.328005 2.673846
Si 8.224673 7.888089 7.427843
Si 4.001599 8.592663 2.579223
Si 3.776082 1.140198 0.211672
Si 8.897104 2.791726 3.209986
Si 4.690016 1.998944 7.830700
Si 9.821837 0.669963 5.541681
Si 9.003060 4.052930 8.357049
Si 6.910249 0.995644 7.500736
Si 9.019096 3.025779 10.310526
Si 4.992581 7.250105 0.888186
Si 3.526974 2.307656 2.278210
Si 2.387733 4.984206 7.221179
Si 8.321420 6.391175 3.564385
Si 6.966343 9.734713 6.068590
Si 8.813112 2.238730 6.965723
Si 10.829409 7.118636 6.071773
Si 0.953727 4.975724 2.270792
Si 6.968696 3.443208 5.454838
Si 2.947236 2.994334 5.461697
Si 6.548547 2.122684 2.350678
Si 9.340720 4.169195 1.439504
Si 3.008949 2.988342 8.756038
Si 1.491041 0.465183 10.620352
64
Step 2490
Si 9.332582 9.479326 10.589397
Si 7.950974 0.789843 9.601004
Si 5.666024 10.405572 1.375042
Si 3.267567 4.356330 3.235434
Si 8.220768 5.665160 7.072999
Si 0.131932 8.676057 9.423706
Si 0.154831 5.308985 9.966335
Si 6.010611 1.774920 10.501326
Si 2.116476 8.915014 10.646943
Si 1.766484 9.002851 3.997914
Si 1.937635 3.379972 0.036113
Si 9.302804 5.010448 4.712331
Si 7.682463 7.772058 10.468844
Si 10.298455 1.042740 3.458539
Si 4.415218 5.940814 4.153375
Si 5.714035 7.532534 6.760824
Si 5.169416 4.842676 6.109495
Si 7.046120 8.832839 2.141802
Si 5.686061 1.632165 5.096727
Si 5.356836 9.075278 9.858133
Si 2.067459 6.397975 0.875151
Si 3.123495 8.697558 6.878446
Si 6.220565 5.833718 8.711477
Si 9.310453 9.727921 2.249512
Si 1.608107 0.049736 6.141129
Si 6.342922 3.900657 10.418341
Si 2.216651 0.912699 3.806950
Si 6.318319 7.522465 4.119499
Si 2.351476 7.158747 5.202911
Si 0.660556 3.298881 4.035496
Si 4.465086 9.967731 4.738124
Si 10.317621 1.422621 0.367418
Si 0.709363 10.657219 8.275625
Si 0.953770 6.917462 8.400441
Si 7.419219 5.832395 0.983396
Si 7.766024 0.362479 4.297406
Si 3.554795 6.943059 9.236228
Si 3.716811 10.610499 8.891402
Si 4.050263 4.800226 0.422006
Si 9.934870 9.412295 6.335957
Si 6.199669 4.360869 2.660923
Si 8.269163 8.023366 7.459874
Si 3.955038 8.632552 2.491901
Si 3.787742 1.282771 0.113558
Si 8.861080 2.869777 3.099316
Si 4.620478 1.824088 7.623138
Si 9.835042 0.632432 5.516670
Si 9.108350 4.132069 8.231021
Si 6.765154 1.086318 7.586047
Si 9.090267 3.037910 10.236640
Si 5.026781 7.206899 1.078252
Si 3.476510 2.313316 2.341877
Si 2.511551 5.068380 7.248502
Si 8.170228 6.299817 3.560717
Si 6.811360 9.721689 6.252122
Si 8.834017 2.390805 7.053175
Si 10.855705 7.158511 6.103038
Si 0.928075 4.958900 2.195093
Si 7.132595 3.264696 5.226622
Si 2.854255 2.941274 5.490136
Si 6.300362 1.984559 2.357020
Si 9.437414 4.169270 1.503792
Si 2.936121 2.957309 8.750477
Si 1.481933 0.542482 10.672877
64
Step 2500
Si 9.310992 9.636205 10.637863
Si 8.026088 0.742389 9.684015
Si 5.607542 10.344540 1.303979
Si 3.283650 4.457219 3.133192
Si 8.273859 5.731393 7.037885
Si 0.120684 8.636628 9.268114
Si 0.108631 5.281805 9.970789
Si 6.069637 1.748131 10.452862
Si 2.362847 8.948492 10.774285
Si 1.821724 9.097002 4.044154
Si 1.876023 3.430852 10.724472
Si 9.311026 5.114771 4.904287
Si 7.693529 7.832209 10.325102
Si 10.349243 1.021791 3.392435
Si 4.430903 5.941692 4.239804
Si 5.621306 7.628652 6.769747
Si 5.253314 4.977791 6.212395
Si 6.979144 8.641158 2.197978
Si 5.740522 1.647430 5.056446
Si 5.481692 8.799034 9.802041
Si 2.135289 6.446211 0.958121
Si 3.286150 8.738731 6.826467
Si 6.305001 5.825090 8.838515
Si 9.135311 9.738226 2.148547
Si 1.633470 0.106489 6.128818
Si 6.288445 3.939935 10.265306
Si 2.217709 0.787013 3.842718
Si 6.268145 7.464647 4.122669
Si 2.094036 7.099204 5.202562
Si 0.621186 3.298188 3.975432
Si 4.499955 9.753858 4.733849
Si 10.511196 1.343058 0.425080
Si 0.757611 10.653879 8.405058
Si 1.105355 7.062659 8.374511
Si 7.482899 5.861403 1.013055
Si 7.667968 0.278752 4.325360
Si 3.684421 6.865538 9.427495
Si 3.558568 10.532762 8.883878
Si 4.047521 4.786296 0.501075
Si 9.808213 9.329386 6.363753
Si 6.137201 4.409044 2.678765
Si 8.382333 8.124250 7.532794
Si 3.847752 8.694638 2.496178
Si 3.797833 1.423056 0.040908
Si 8.718088 2.922872 3.043649
Si 4.468969 1.668130 7.442199
Si 9.871699 0.672884 5.569552
Si 9.290130 4.247396 8.188702
Si 6.703747 1.126530 7.667233
Si 9.145292 3.106049 10.196923
Si 5.042495 7.090899 1.195747
Si 3.455288 2.231914 2.338368
Si 2.683866 5.165720 7.238684
Si 7.984426 6.228207 3.452599
Si 6.657836 9.777695 6.380217
Si 8.833651 2.390661 7.020119
Si 10.845907 7.158899 6.133422
Si 0.848762 4.904404 2.144279
Si 7.310459 3.196625 5.012926
Si 2.819625 2.911504 5.602963
Si 6.015892 1.806569 2.353798
Si 9.568741 4.310701 1.437988
Si 2.864222 2.989801 8.716172
Si 1.458983 0.593032 10.729686
64
Step 2510
Si 9.248274 9.784349 10.695112
Si 8.144065 0.692577 9.796336
Si 5.505129 10.267075 1.213310
Si 3.228303 4.448873 3.012686
Si 8.302250 5.830094 6.990570
Si 0.024839 8.633200 9.181365
Si 0.150673 5.285962 9.951272
Si 6.140585 1.725854 10.427355
Si 2.627285 8.947659 0.058571
Si 1.848150 9.173167 4.053357
Si 1.773068 3.575284 10.601043
Si 9.349780 5.188720 5.135448
Si 7.712887 7.911922 10.115318
Si 10.446392 0.999700 3.250944
Si 4.437473 6.035338 4.381325
Si 5.477271 7.676024 6.839423
Si 5.323854 5.090008 6.345001
Si 6.973195 8.537789 2.243241
Si 5.683865 1.620576 4.990084
Si 5.563236 8.523445 9.740830
Si 2.175847 6.556314 1.025984
Si 3.432609 8.785844 6.822547
Si 6.405917 5.874207 8.947155
Si 8.943097 9.763204 2.073639
Si 1.662411 0.165865 6.188884
Si 6.240010 4.043946 10.157402
Si 2.228413 0.732737 3.860458
Si 6.168441 7.472965 4.171061
Si 1.884592 7.003887 5.243680
Si 0.558617 3.317266 3.940356
Si 4.594745 9.594062 4.744784
Si 10.503119 1.344759 0.559931
Si 0.835031 10.735216 8.457620
Si 1.306428 7.049301 8.279310
Si 7.567943 5.863532 0.968610
Si 7.572015 0.114138 4.334852
Si 3.849755 6.836757 9.545957
Si 3.445223 10.403873 8.826258
Si 4.101564 4.707399 0.571022
Si 9.743260 9.274090 6.396913
Si 6.086619 4.392942 2.677299
Si 8.451364 8.201612 7.688122
Si 3.729083 8.757239 2.448096
Si 3.828375 1.511651 0.005822
Si 8.567736 2.915530 2.962486
Si 4.222979 1.526498 7.291190
Si 9.876935 0.748016 5.637412
Si 9.484841 4.374608 8.170122
Si 6.713235 1.119995 7.758321
Si 9.135257 3.124101 10.218314
Si 5.021634 6.944423 1.268487
Si 3.434738 2.119948 2.301920
Si 2.885178 5.239514 7.196783
Si 7.841960 6.156067 3.381622
Si 6.546699 9.878671 6.485114
Si 8.821961 2.340223 6.891710
Si 10.842490 7.152378 6.177372
Si 0.756647 4.822465 2.111119
Si 7.507312 3.240243 4.870715
Si 2.827232 2.880384 5.734485
Si 5.747342 1.646370 2.387866
Si 9.681298 4.455732 1.318742
Si 2.830371 3.061303 8.551427
Si 1.563109 0.525097 10.772425
64
Step 2520
Si 9.191156 9.865727 10.705276
Si 8.262981 0.704355 9.910943
Si 5.380761 10.140203 1.051466
Si 3.119813 4.352486 2.942776
Si 8.296332 5.916885 6.979297
Si 10.756982 8.721378 9.131747
Si 0.260015 5.349622 9.873487
Si 6.218058 1.687542 10.438878
Si 2.874419 8.970523 0.166793
Si 1.850372 9.197311 4.064286
Si 1.684502 3.694902 10.470073
Si 9.413970 5.228394 5.291885
Si 7.800691 8.014061 9.918671
Si 10.499702 0.993007 3.081795
Si 4.381645 6.090754 4.543575
Si 5.389986 7.678134 7.018127
Si 5.427502 5.216155 6.503234
Si 6.986155 8.495013 2.222124
Si 5.587052 1.599230 4.951552
Si 5.561622 8.353855 9.740533
Si 2.158867 6.694982 1.081751
Si 3.482480 8.848507 6.828971
Si 6.498928 5.900583 8.932735
Si 8.761806 9.823715 2.089608
Si 1.709055 0.236369 6.298454
Si 6.245643 4.123894 10.109085
Si 2.259218 0.738461 3.872344
Si 6.039500 7.547098 4.264490
Si 1.861633 6.923798 5.220068
Si 0.511662 3.356836 3.951797
Si 4.681007 9.524442 4.703626
Si 10.463511 1.371002 0.733914
Si 0.909741 10.815622 8.478566
Si 1.480570 6.967073 8.196555
Si 7.666573 5.874854 0.867978
Si 7.540431 10.813326 4.294484
Si 3.966600 6.807604 9.557547
Si 3.402879 10.213926 8.724922
Si 4.151209 4.533343 0.615443
Si 9.748224 9.270374 6.414950
Si 6.018499 4.329772 2.638898
Si 8.425859 8.270168 7.916073
Si 3.603958 8.818210 2.394624
Si 3.813931 1.597350 10.808888
Si 8.464447 2.865411 2.865495
Si 3.972005 1.341197 7.170233
Si 9.875774 0.778197 5.695055
Si 9.642503 4.455387 8.167047
Si 6.725072 1.095870 7.776423
Si 9.021617 3.104293 10.221335
Si 5.061567 6.834583 1.362014
Si 3.382826 2.046428 2.324133
Si 3.096409 5.312420 7.123546
Si 7.814608 6.015584 3.374237
Si 6.490644 10.002653 6.601055
Si 8.787021 2.320938 6.765663
Si 10.784510 7.164563 6.237418
Si 0.727861 4.744062 2.130099
Si 7.722960 3.296339 4.829793
Si 2.773639 2.845074 5.724306
Si 5.542405 1.509068 2.485905
Si 9.719526 4.601468 1.189707
Si 2.798174 3.130678 8.437094
Si 1.696937 0.448925 10.825138
64
Step 2530
Si 9.198902 9.858116 10.791582
Si 8.279955 0.838748 9.926903
Si 5.269128 10.090753 0.844195
Si 3.031732 4.262856 2.934788
Si 8.221027 6.026859 7.053327
Si 10.683832 8.833801 9.101769
Si 0.349244 5.498019 9.766162
Si 6.250005 1.647911 10.512322
Si 3.045725 9.047346 0.214137
Si 1.917522 9.219765 4.082988
Si 1.687383 3.736859 10.344300
Si 9.516497 5.253778 5.301924
Si 7.897543 8.070489 9.937559
Si 10.499141 1.033341 2.979923
Si 4.286806 6.092440 4.634051
Si 5.374599 7.715000 7.241586
Si 5.540185 5.305219 6.640864
Si 7.006118 8.471507 2.158169
Si 5.504590 1.576569 4.937210
Si 5.511172 8.374889 9.821640
Si 2.114086 6.717449 1.127405
Si 3.409135 8.916632 6.783509
Si 6.593947 5.858399 8.841559
Si 8.624905 9.930040 2.182424
Si 1.688201 0.271561 6.382645
Si 6.315531 4.077833 10.115761
Si 2.233108 0.786263 3.873742
Si 5.900695 7.628611 4.339236
Si 1.998663 6.874507 5.169554
Si 0.442304 3.319169 4.008062
Si 4.746816 9.522729 4.599186
Si 10.474933 1.441084 0.922497
Si 0.945825 10.858762 8.494598
Si 1.630665 6.915349 8.162120
Si 7.771940 5.927556 0.737666
Si 7.513273 10.651547 4.247302
Si 3.942424 6.682346 9.574445
Si 3.434839 9.992904 8.651857
Si 4.169124 4.365153 0.590557
Si 9.813384 9.316756 6.422838
Si 5.889612 4.253560 2.645959
Si 8.370787 8.348987 7.947238
Si 3.475157 8.864135 2.426443
Si 3.748834 1.686658 10.714996
Si 8.419618 2.801074 2.721270
Si 3.801267 1.131035 7.087491
Si 9.868490 0.750417 5.743763
Si 9.809986 4.475712 8.213319
Si 6.766599 1.104307 7.769222
Si 8.884701 3.083754 10.227664
Si 5.104618 6.718226 1.492828
Si 3.291833 1.967060 2.345057
Si 3.308609 5.343196 7.041742
Si 7.842766 5.828837 3.411471
Si 6.497972 10.129161 6.691853
Si 8.732392 2.287378 6.625779
Si 10.690835 7.180381 6.274021
Si 0.824242 4.730710 2.152052
Si 7.908025 3.348949 4.836722
Si 2.665429 2.877687 5.561089
Si 5.478907 1.378980 2.575330
Si 9.651219 4.683940 1.021632
Si 2.756280 3.191004 8.422758
Si 1.822920 0.409923 0.043924
64
Step 2540
Si 9.241138 9.844938 0.060493
Si 8.301130 0.978330 9.883930
Si 5.244577 10.143213 0.659388
Si 2.987562 4.208080 2.968537
Si 8.184083 6.083456 7.123974
Si 10.701533 8.966235 9.123662
Si 0.458561 5.699413 9.676503
Si 6.175804 1.607859 10.669878
Si 3.082704 9.112710 0.177298
Si 1.974376 9.255211 4.125899
Si 1.710538 3.751323 10.245347
Si 9.649315 5.264522 5.286329
Si 7.930510 8.091067 10.211155
Si 10.469577 1.057815 3.044883
Si 4.175961 6.042666 4.549259
Si 5.367359 7.848029 7.433716
Si 5.700701 5.305242 6.715170
Si 6.982618 8.378251 2.074332
Si 5.455520 1.543142 4.972839
Si 5.505301 8.487648 9.935799
Si 2.095594 6.678708 1.118014
Si 3.284971 8.842556 6.656255
Si 6.685854 5.693323 8.821693
Si 8.549995 10.076796 2.276470
Si 1.572070 0.346629 6.342712
Si 6.428763 4.002003 10.143602
Si 2.147822 0.832427 3.887811
Si 5.828130 7.704361 4.416897
Si 2.142013 6.884122 5.153001
Si 0.319874 3.281926 4.067594
Si 4.839294 9.598075 4.466796
Si 10.507172 1.525606 0.989374
Si 0.940608 0.004496 8.615666
Si 1.776309 6.913186 8.124236
Si 7.833075 6.013255 0.650009
Si 7.457707 10.523889 4.252855
Si 3.796924 6.489002 9.637170
Si 3.484406 9.797613 8.673990
Si 4.171396 4.269135 0.515572
Si 9.887838 9.393197 6.374731
Si 5.819235 4.134593 2.719690
Si 8.288294 8.464249 7.763354
Si 3.382519 8.880600 2.528127
Si 3.688708 1.765135 10.599166
Si 8.392381 2.785408 2.517449
Si 3.736095 0.972290 7.036715
Si 9.881615 0.608684 5.757391
Si 9.949299 4.451638 8.261839
Si 6.831870 1.186809 7.741912
Si 8.783306 3.124067 10.230472
Si 5.115363 6.613335 1.620309
Si 3.183224 1.872802 2.327148
Si 3.445390 5.266997 7.054065
Si 7.845302 5.637560 3.405841
Si 6.539599 10.202686 6.699585
Si 8.632072 2.283655 6.540427
Si 10.693918 7.180624 6.252085
Si 0.910091 4.724640 2.143896
Si 8.016018 3.404063 4.889896
Si 2.548027 2.977699 5.355702
Si 5.507460 1.286544 2.633498
Si 9.577908 4.694444 0.874449
Si 2.743962 3.247367 8.373030
Si 1.885665 0.416644 0.135102
64
Step 2550
Si 9.303899 9.871899 0.169569
Si 8.331809 1.042251 9.862446
Si 5.324512 10.299803 0.567429
Si 3.000679 4.179470 3.015706
Si 8.257400 6.110635 7.196904
Si 10.690196 9.050865 9.159344
Si 0.600975 5.885024 9.641807
Si 6.046366 1.551929 10.843769
Si 2.951386 9.124775 0.172023
Si 1.980954 9.304163 4.206605
Si 1.690070 3.822841 10.151841
Si 9.809733 5.244055 5.268736
Si 7.926831 8.106828 10.462467
Si 10.438773 1.028374 3.282627
Si 4.122676 5.971777 4.334942
Si 5.401402 7.993694 7.577938
Si 5.842153 5.262981 6.731959
Si 6.935354 8.242640 2.010426
Si 5.383439 1.508061 5.051197
Si 5.630076 8.512708 10.013668
Si 2.170791 6.658314 1.083549
Si 3.123798 8.736897 6.482946
Si 6.748730 5.545455 8.877989
Si 8.522335 10.231529 2.337538
Si 1.393764 0.440829 6.299457
Si 6.523081 3.874480 10.240935
Si 1.990624 0.816498 3.964625
Si 5.850960 7.668328 4.506126
Si 2.248724 6.931809 5.140084
Si 0.141099 3.314563 4.119358
Si 4.872935 9.766379 4.348977
Si 10.573033 1.548005 0.897028
Si 0.974036 0.074057 8.727967
Si 1.843144 6.958885 8.089461
Si 7.858411 6.127781 0.602403
Si 7.398255 10.432204 4.306141
Si 3.669808 6.290945 9.773981
Si 3.494443 9.683134 8.711421
Si 4.176402 4.249726 0.407754
Si 9.973537 9.367978 6.367180
Si 5.748909 4.016316 2.787465
Si 8.158963 8.600816 7.575243
Si 3.308811 8.814118 2.542570
Si 3.675368 1.834947 10.481609
Si 8.363782 2.826030 2.312085
Si 3.742467 0.854103 6.996131
Si 9.884825 0.471051 5.745618
Si 10.010063 4.427135 8.274785
Si 6.900817 1.320653 7.685986
Si 8.741365 3.197878 10.172234
Si 5.070791 6.538281 1.715122
Si 3.169536 1.785876 2.233253
Si 3.516743 5.099361 7.112419
Si 7.822413 5.478894 3.362087
Si 6.585317 10.240247 6.688919
Si 8.555175 2.249654 6.518008
Si 10.769989 7.204146 6.225384
Si 0.969094 4.710995 2.029025
Si 8.080537 3.471274 4.931957
Si 2.452795 3.084160 5.203359
Si 5.568537 1.221942 2.686946
Si 9.549642 4.714094 0.766143
Si 2.734120 3.300916 8.299684
Si 1.849356 0.426532 0.231631
64
Step 2560
Si 9.386119 9.919259 0.233600
Si 8.335443 1.064124 9.827106
Si 5.414327 10.408503 0.563939
Si 3.046771 4.148319 3.065351
Si 8.444971 6.131507 7.287298
Si 10.611562 9.084926 9.179002
Si 0.695462 5.988590 9.680578
Si 5.943837 1.510776 0.130281
Si 2.781201 9.131435 0.168927
Si 1.948347 9.377555 4.233053
Si 1.649542 3.940264 10.019128
Si 9.981321 5.223206 5.316758
Si 7.939982 8.174598 10.593409
Si 10.366572 1.003287 3.524356
Si 4.137839 5.875062 4.114490
Si 5.464996 8.067364 7.641873
Si 5.878938 5.233185 6.696604
Si 6.848705 8.177002 2.055542
Si 5.296104 1.494087 5.224075
Si 5.789685 8.451594 10.058278
Si 2.257348 6.618560 1.052133
Si 3.002494 8.672096 6.334967
Si 6.788200 5.484964 8.898316
Si 8.527461 10.392775 2.360897
Si 1.210890 0.571344 6.335544
Si 6.535331 3.701208 10.394472
Si 1.858339 0.770903 4.040676
Si 5.932402 7.514101 4.610371
Si 2.292667 6.936622 5.125302
Si 10.776180 3.376081 4.127835
Si 4.865213 9.927242 4.236712
Si 10.615906 1.538928 0.832818
Si 1.087135 0.197844 8.816644
Si 1.875278 7.063873 8.054125
Si 7.904238 6.182028 0.586479
Si 7.387570 10.352137 4.410513
Si 3.608042 6.139524 9.928940
Si 3.435014 9.662086 8.751621
Si 4.206827 4.285507 0.336087
Si 10.044070 9.227006 6.412352
Si 5.712877 3.887799 2.821699
Si 8.029479 8.706054 7.472902
Si 3.267849 8.736640 2.497800
Si 3.676349 1.858091 10.353376
Si 8.348305 2.830019 2.121394
Si 3.761908 0.759652 6.948527
Si 9.832840 0.455021 5.644550
Si 10.016738 4.460013 8.179387
Si 6.931071 1.409024 7.618677
Si 8.779268 3.223661 10.077408
Si 5.003203 6.499644 1.805604
Si 3.161411 1.680613 2.149293
Si 3.590648 4.935092 7.159374
Si 7.737411 5.387123 3.309032
Si 6.608541 10.324708 6.729160
Si 8.568967 2.208705 6.508307
Si 0.022430 7.191247 6.219378
Si 1.008604 4.714786 1.858414
Si 8.093268 3.532278 4.950091
Si 2.403115 3.145963 5.123321
Si 5.655152 1.224457 2.718451
Si 9.597769 4.765098 0.724868
Si 2.700951 3.317745 8.174911
Si 1.765519 0.449079 0.295607
64
Step 2570
Si 9.459585 9.990839 0.266830
Si 8.322973 1.028222 9.755180
Si 5.444326 10.292178 0.599803
Si 3.038275 4.022226 3.073976
Si 8.639555 6.173464 7.406125
Si 10.532671 9.084303 9.141740
Si 0.679593 6.111150 9.729207
Si 5.899914 1.496382 0.218220
Si 2.670443 9.192320 0.163928
Si 1.851301 9.423674 4.217205
Si 1.555129 4.003467 9.919553
Si 10.141363 5.247867 5.393150
Si 8.030021 8.256528 10.634459
Si 10.264870 1.043011 3.649642
Si 4.122329 5.823494 4.006298
Si 5.531320 8.042303 7.663714
Si 5.865245 5.268504 6.604762
Si 6.712623 8.180925 2.225084
Si 5.156086 1.518359 5.388679
Si 5.853243 8.359743 10.080307
Si 2.291771 6.610025 1.039346
Si 2.994831 8.700381 6.290432
Si 6.788909 5.532460 8.878748
Si 8.537163 10.546482 2.369608
Si 1.092240 0.712667 6.512321
Si 6.505090 3.582021 10.559289
Si 1.795335 0.794832 4.078524
Si 6.058340 7.323320 4.739495
Si 2.355593 6.825253 5.048827
Si 10.623231 3.437021 4.081128
Si 4.819019 10.008881 4.131834
Si 10.623554 1.543980 0.806590
Si 1.211920 0.283836 8.887728
Si 1.873335 7.227761 8.053888
Si 7.956293 6.205394 0.578820
Si 7.426530 10.249118 4.507105
Si 3.591981 6.037816 10.025837
Si 3.346668 9.683375 8.771477
Si 4.283237 4.292979 0.347362
Si 10.061456 9.060565 6.478715
Si 5.753507 3.717495 2.787171
Si 8.018648 8.719238 7.420056
Si 3.290571 8.640438 2.420540
Si 3.656090 1.891529 10.213881
Si 8.356791 2.810138 1.986856
Si 3.717479 0.658477 6.905812
Si 9.701158 0.471661 5.567004
Si 10.027607 4.485932 8.066406
Si 6.919724 1.464461 7.659748
Si 8.916687 3.240947 9.952521
Si 4.966007 6.537814 1.851662
Si 3.119979 1.545457 2.124851
Si 3.681615 4.929438 7.085626
Si 7.654878 5.363231 3.265275
Si 6.578359 10.389231 6.795281
Si 8.736331 2.182517 6.515099
Si 0.194506 7.158824 6.203070
Si 1.056392 4.701377 1.721619
Si 8.005697 3.637911 4.910340
Si 2.353012 3.187988 5.083732
Si 5.755408 1.312298 2.796204
Si 9.654082 4.842640 0.752291
Si 2.646992 3.153477 7.981719
Si 1.677124 0.462340 0.330286
64
Step 2580
Si 9.531529 10.098800 0.305159
Si 8.304742 0.980814 9.678805
Si 5.351796 10.045131 0.667196
Si 2.974366 3.850593 3.007938
Si 8.739145 6.277416 7.561994
Si 10.471342 9.069586 9.070202
Si 0.593204 6.313221 9.726585
Si 5.858327 1.484095 0.247165
Si 2.645288 9.303589 0.166139
Si 1.769482 9.450984 4.153893
Si 1.449317 3.974659 9.822078
Si 10.284328 5.294119 5.435835
Si 8.173978 8.291918 10.619508
Si 10.249459 1.158304 3.581765
Si 4.105570 5.775507 3.958813
Si 5.561154 7.953009 7.675737
Si 5.909988 5.379804 6.470333
Si 6.573979 8.247006 2.446005
Si 5.022241 1.606017 5.461068
Si 5.828996 8.307889 10.067019
Si 2.267343 6.615275 1.017392
Si 3.105414 8.810031 6.256379
Si 6.839275 5.618621 8.869018
Si 8.509175 10.704108 2.344216
Si 1.068346 0.867079 6.753744
Si 6.505642 3.521394 10.752463
Si 1.754040 0.934695 4.061612
Si 6.230096 7.166312 4.904965
Si 2.425082 6.635300 4.970248
Si 10.548463 3.464082 3.953828
Si 4.737002 9.989286 4.056586
Si 10.530145 1.600161 0.772946
Si 1.294586 0.362269 8.897861
Si 1.866119 7.372147 8.112266
Si 8.001929 6.180018 0.553338
Si 7.450254 10.082570 4.595352
Si 3.570293 5.979888 10.039371
Si 3.307045 9.651891 8.804549
Si 4.389324 4.233704 0.416934
Si 10.108188 8.955284 6.535260
Si 5.790472 3.557878 2.736916
Si 8.052409 8.634763 7.419740
Si 3.341786 8.566645 2.397358
Si 3.616086 1.941050 10.071834
Si 8.416656 2.810349 1.908450
Si 3.582689 0.509053 6.924673
Si 9.526493 0.405309 5.582823
Si 10.020210 4.409096 8.036288
Si 6.974670 1.553476 7.734075
Si 9.096803 3.305570 9.837822
Si 4.931886 6.553068 1.851808
Si 3.113189 1.428482 2.198318
Si 3.672371 4.982862 7.024264
Si 7.564653 5.404769 3.200313
Si 6.527250 10.405299 6.845234
Si 8.867149 2.242787 6.604669
Si 0.408872 7.148583 6.153224
Si 1.092939 4.640208 1.622706
Si 7.860808 3.747158 4.869631
Si 2.276065 3.179125 5.087293
Si 5.866245 1.413626 2.920914
Si 9.724140 4.912600 0.809494
Si 2.587863 2.927570 7.741441
Si 1.628306 0.436086 0.351134
64
Step 2590
Si 9.571890 10.217052 0.376119
Si 8.263601 0.994311 9.605300
Si 5.230584 9.801113 0.805936
Si 2.901059 3.749664 2.881482
Si 8.803656 6.396258 7.736986
Si 10.485164 9.050560 8.976841
Si 0.442881 6.509047 9.718051
Si 5.801172 1.399950 0.264194
Si 2.691477 9.401302 0.168358
Si 1.704359 9.454110 4.106501
Si 1.361377 3.928760 9.717187
Si 10.389494 5.273892 5.440563
Si 8.266486 8.331072 10.597527
Si 10.285458 1.295989 3.508525
Si 4.161417 5.673490 3.868922
Si 5.533286 7.894428 7.700519
Si 5.989708 5.459025 6.330645
Si 6.479302 8.342155 2.689576
Si 4.892516 1.656185 5.517153
Si 5.759642 8.254292 9.979850
Si 2.186002 6.613675 0.977227
Si 3.298050 8.926680 6.178838
Si 6.886143 5.728180 8.906284
Si 8.414304 10.845864 2.293043
Si 1.012627 1.043210 6.892683
Si 6.590094 3.506025 0.051438
Si 1.694125 1.044848 4.033006
Si 6.407876 7.056555 5.032144
Si 2.472591 6.461775 4.924286
Si 10.469013 3.533629 3.823032
Si 4.667853 9.948689 4.001159
Si 10.409524 1.700857 0.720891
Si 1.321743 0.396701 8.956308
Si 1.895420 7.477928 8.217514
Si 7.999638 6.106827 0.559512
Si 7.450398 9.896783 4.689496
Si 3.546425 5.947637 9.964138
Si 3.315069 9.529614 8.867308
Si 4.464879 4.192526 0.480078
Si 10.213965 8.885745 6.522979
Si 5.800302 3.540740 2.721579
Si 8.060681 8.519652 7.449819
Si 3.374818 8.516736 2.404961
Si 3.553945 2.006407 9.988738
Si 8.543602 2.834183 1.850264
Si 3.502153 0.355134 6.919071
Si 9.369691 0.296863 5.630984
Si 10.024072 4.295570 8.029077
Si 7.088755 1.648886 7.805378
Si 9.263839 3.363626 9.741515
Si 4.918617 6.504107 1.847627
Si 3.166578 1.334348 2.295368
Si 3.604533 5.083764 6.974882
Si 7.481324 5.505366 3.072301
Si 6.440885 10.433780 6.843542
Si 8.957434 2.346421 6.695850
Si 0.604821 7.169114 6.106011
Si 1.135828 4.536089 1.555282
Si 7.741283 3.874227 4.867389
Si 2.213241 3.121416 5.108942
Si 5.960512 1.353012 3.065460
Si 9.810326 4.959657 0.901047
Si 2.524045 2.764674 7.506562
Si 1.574448 0.431813 0.396740
64
Step 2600
Si 9.571957 10.335683 0.438628
Si 8.183246 1.005010 9.628615
Si 5.155324 9.603446 0.983481
Si 2.874501 3.673513 2.702546
Si 8.897062 6.445757 7.935452
Si 10.539911 9.088469 8.899295
Si 0.234063 6.649544 9.723892
Si 5.767274 1.214256 0.274245
Si 2.706468 9.494586 0.238977
Si 1.669974 9.435347 4.117916
Si 1.346535 3.927840 9.605944
Si 10.419949 5.192542 5.461120
Si 8.304098 8.341321 10.556032
Si 10.342152 1.353258 3.479325
Si 4.249421 5.525609 3.780908
Si 5.459818 7.865986 7.681875
Si 6.064390 5.410475 6.254251
Si 6.422457 8.420787 2.924042
Si 4.795887 1.657355 5.522947
Si 5.672217 8.170821 9.940884
Si 2.083642 6.589844 0.927519
Si 3.472893 8.987295 5.989980
Si 6.917952 5.776516 9.011713
Si 8.261177 0.106373 2.294046
Si 0.858253 1.211347 6.880984
Si 6.804243 3.543189 0.113611
Si 1.603946 1.032109 4.079549
Si 6.591596 7.073717 5.101692
Si 2.519281 6.356605 4.964065
Si 10.369667 3.715390 3.747450
Si 4.624768 9.960580 3.950704
Si 10.335638 1.787766 0.676565
Si 1.266501 0.326222 9.096862
Si 2.005615 7.557866 8.295284
Si 7.965723 6.038051 0.548049
Si 7.433810 9.726663 4.793130
Si 3.558529 5.916202 9.805319
Si 3.322244 9.387892 8.900628
Si 4.469298 4.203983 0.506698
Si 10.297171 8.861057 6.499703
Si 5.801912 3.577054 2.823458
Si 8.090522 8.413004 7.481455
Si 3.343520 8.448174 2.427756
Si 3.466868 2.076675 9.955521
Si 8.585679 2.910699 1.807550
Si 3.533123 0.192331 6.853748
Si 9.239642 0.189153 5.639661
Si 10.056920 4.231773 7.896704
Si 7.162221 1.698361 7.807361
Si 9.368560 3.401776 9.749708
Si 4.958638 6.439837 1.800953
Si 3.273069 1.261797 2.356404
Si 3.519121 5.231824 6.942688
Si 7.402243 5.642251 2.863643
Si 6.325741 10.552654 6.801188
Si 9.044887 2.517928 6.709729
Si 0.820331 7.224014 6.049308
Si 1.176473 4.422074 1.512617
Si 7.713387 3.999334 4.938941
Si 2.174103 3.082023 5.061205
Si 6.033350 1.161391 3.229579
Si 9.884666 5.032901 0.994040
Si 2.489967 2.748314 7.330898
Si 1.542408 0.434369 0.491943
64
Step 2610
Si 9.507119 10.440562 0.478887
Si 8.042896 0.995137 9.703995
Si 5.159759 9.446747 1.072821
Si 2.864063 3.594644 2.506890
Si 8.970886 6.455081 8.157256
Si 10.599000 9.204170 8.868876
Si 10.841269 6.733602 9.741878
Si 5.700033 0.997519 0.301961
Si 2.711559 9.509244 0.355429
Si 1.615582 9.399491 4.202048
Si 1.378153 3.954160 9.515225
Si 10.423414 5.177780 5.559378
Si 8.316187 8.312162 10.474239
Si 10.349365 1.347107 3.520287
Si 4.342599 5.378064 3.788005
Si 5.420582 7.833935 7.583993
Si 6.093641 5.269337 6.246141
Si 6.387629 8.470240 3.086354
Si 4.660754 1.655670 5.491174
Si 5.613094 8.055997 9.988501
Si 2.013187 6.548946 0.879348
Si 3.612056 8.983509 5.741935
Si 6.992472 5.752993 9.119440
Si 8.090223 0.207058 2.355725
Si 0.609871 1.322872 6.846531
Si 7.020216 3.587103 0.112922
Si 1.530612 0.927774 4.170497
Si 6.772745 7.141653 5.150065
Si 2.593634 6.250027 5.047680
Si 10.299127 3.878900 3.660227
Si 4.564900 10.011770 3.943068
Si 10.367925 1.838384 0.626274
Si 1.138950 0.248993 9.125442
Si 2.200162 7.577127 8.357992
Si 7.941874 6.009336 0.535071
Si 7.445089 9.616971 4.927906
Si 3.611372 5.917744 9.615037
Si 3.327691 9.270572 8.929992
Si 4.469520 4.183153 0.476821
Si 10.436894 8.856098 6.435541
Si 5.833969 3.583312 2.980570
Si 8.059424 8.312272 7.519608
Si 3.240017 8.334033 2.461844
Si 3.387875 2.167283 9.964466
Si 8.551121 3.042008 1.822530
Si 3.569753 0.055250 6.815366
Si 9.184860 0.146263 5.580256
Si 10.134644 4.245702 7.668532
Si 7.214217 1.707428 7.742461
Si 9.453913 3.419949 9.828120
Si 4.969353 6.426886 1.646824
Si 3.368409 1.216443 2.369887
Si 3.438177 5.400433 6.917255
Si 7.344716 5.770962 2.666867
Si 6.211740 10.676055 6.779568
Si 9.092033 2.666574 6.629272
Si 1.004298 7.307228 5.973587
Si 1.214723 4.303274 1.431437
Si 7.773481 4.125189 5.059240
Si 2.166677 3.095487 4.965492
Si 6.102298 0.995141 3.390610
Si 9.925971 5.177489 1.041085
Si 2.504010 2.831851 7.234424
Si 1.526218 0.491843 0.669836
64
Step 2620
Si 9.400426 10.528187 0.508211
Si 7.860189 0.983448 9.806858
Si 5.230310 9.335057 1.049129
Si 2.956703 3.497184 2.342781
Si 9.049631 6.405452 8.393010
Si 10.637904 9.331234 8.887415
Si 10.635007 6.795497 9.791004
Si 5.593117 0.815865 0.384943
Si 2.696660 9.490182 0.456439
Si 1.516138 9.352643 4.281640
Si 1.381396 4.003728 9.421788
Si 10.509561 5.260082 5.624544
Si 8.349482 8.303378 10.358784
Si 10.338186 1.329539 3.590456
Si 4.481218 5.230608 3.849785
Si 5.444323 7.786988 7.434726
Si 6.067174 5.132170 6.251523
Si 6.382516 8.473100 3.156556
Si 4.456657 1.686457 5.431450
Si 5.569846 7.917276 10.055026
Si 1.988236 6.505588 0.812141
Si 3.750853 8.950090 5.567514
Si 7.055783 5.735296 9.131235
Si 7.920208 0.325629 2.422256
Si 0.349192 1.396012 6.822273
Si 7.149233 3.526113 0.101623
Si 1.463605 0.800773 4.275883
Si 6.952352 7.126737 5.227392
Si 2.701779 6.099244 5.051642
Si 10.258403 4.016169 3.572885
Si 4.513194 10.083289 3.947669
Si 10.476123 1.869535 0.599164
Si 1.082462 0.213624 9.097625
Si 2.297554 7.578155 8.407841
Si 7.887674 6.080403 0.525521
Si 7.465857 9.627862 5.084821
Si 3.651989 5.934880 9.460939
Si 3.364874 9.244799 8.976862
Si 4.480540 4.091189 0.419622
Si 10.563160 8.953804 6.399589
Si 5.926293 3.527113 3.138838
Si 7.971960 8.288259 7.535213
Si 3.027974 8.180504 2.471656
Si 3.312399 2.236062 10.009770
Si 8.467196 3.098603 1.970707
Si 3.542615 10.804576 6.844265
Si 9.203914 0.113211 5.495205
Si 10.277086 4.265920 7.505836
Si 7.263642 1.710283 7.649417
Si 9.573526 3.424967 9.870772
Si 4.948995 6.440417 1.432439
Si 3.467071 1.187866 2.314288
Si 3.441124 5.533615 6.982753
Si 7.272502 5.883963 2.561102
Si 6.137540 10.749362 6.794060
Si 9.054652 2.700281 6.531105
Si 1.121538 7.381100 5.943570
Si 1.179268 4.199001 1.260142
Si 7.841954 4.257869 5.138567
Si 2.119873 3.142678 4.816141
Si 6.153741 0.903351 3.532880
Si 10.030445 5.380608 1.064655
Si 2.557745 2.907850 7.194859
Si 1.485436 0.587260 0.821185
64
Step 2630
Si 9.267040 10.568319 0.474939
Si 7.630276 1.039633 9.917800
Si 5.317804 9.293695 0.990414
Si 3.051000 3.424193 2.197436
Si 9.107578 6.267277 8.462791
Si 10.623741 9.449832 8.952741
Si 10.662740 6.855333 9.911111
Si 5.504589 0.701823 0.510400
Si 2.675718 9.460599 0.528344
Si 1.419160 9.284947 4.297101
Si 1.385618 4.062400 9.335382
Si 10.679167 5.430278 5.552975
Si 8.366534 8.439583 10.315901
Si 10.290471 1.329499 3.593070
Si 4.652948 5.101264 3.888014
Si 5.445679 7.769772 7.300844
Si 5.967526 5.006363 6.303735
Si 6.394660 8.457119 3.149104
Si 4.248355 1.772347 5.350152
Si 5.549360 7.750550 10.096068
Si 1.996436 6.442675 0.728258
Si 3.862936 8.820883 5.503962
Si 7.051426 5.711142 9.052479
Si 7.750587 0.434954 2.444943
Si 0.163071 1.455988 6.859816
Si 7.240488 3.373481 0.074531
Si 1.384338 0.714755 4.364825
Si 7.138429 7.057214 5.293584
Si 2.763409 5.929026 4.946569
Si 10.282888 4.111453 3.532840
Si 4.484239 10.172796 3.818825
Si 10.614711 1.885539 0.633738
Si 1.097924 0.228400 9.051064
Si 2.258867 7.618756 8.474062
Si 7.835843 6.180562 0.526248
Si 7.460508 9.742221 5.238011
Si 3.693578 5.940176 9.403195
Si 3.418495 9.276283 9.010687
Si 4.517236 3.997006 0.355988
Si 10.647637 9.080336 6.432101
Si 6.037089 3.388161 3.262884
Si 7.912988 8.321657 7.556120
Si 2.773505 8.031287 2.531264
Si 3.184392 2.261760 10.062384
Si 8.379563 3.083257 2.152125
Si 3.450775 10.717190 6.985226
Si 9.281813 0.090518 5.375220
Si 10.434407 4.240835 7.452643
Si 7.315591 1.705268 7.613284
Si 9.647222 3.414139 9.917372
Si 4.878630 6.428892 1.225360
Si 3.600201 1.149527 2.247812
Si 3.560936 5.550762 7.128259
Si 7.152047 5.988886 2.608748
Si 6.110895 10.732618 6.826018
Si 8.960174 2.685659 6.422358
Si 1.203096 7.423417 5.930062
Si 1.125074 4.071312 1.073202
Si 7.964154 4.360387 5.158342
Si 2.007143 3.251288 4.626406
Si 6.169209 0.903437 3.665341
Si 10.155102 5.607516 1.043080
Si 2.626960 2.973862 7.176305
Si 1.474030 0.701877 0.946130
64
Step 2640
Si 9.123717 10.631940 0.414962
Si 7.403749 1.149942 9.997351
Si 5.382567 9.269720 0.944910
Si 3.155307 3.380256 2.097757
Si 9.111213 6.051764 8.469307
Si 10.558162 9.523584 9.005171
Si 10.840362 6.932289 10.032063
Si 5.421916 0.643799 0.681506
Si 2.681362 9.432992 0.568281
Si 1.359600 9.214604 4.269865
Si 1.407792 4.158327 9.273830
Si 10.861347 5.600269 5.408343
Si 8.355610 8.632474 10.296663
Si 10.222179 1.292831 3.555756
Si 4.809452 5.014343 3.901222
Si 5.411875 7.777744 7.197787
Si 5.854878 4.891817 6.433879
Si 6.414800 8.466254 3.114042
Si 4.033950 1.853015 5.279952
Si 5.562981 7.594236 10.088150
Si 2.055127 6.386754 0.617946
Si 3.946802 8.687444 5.446647
Si 7.017265 5.668094 8.889633
Si 7.722737 0.530266 2.354997
Si 0.073034 1.445820 6.935856
Si 7.282858 3.239999 0.035735
Si 1.305443 0.725289 4.415710
Si 7.335698 6.964944 5.293564
Si 2.804685 5.749856 4.810715
Si 10.355316 4.200970 3.496928
Si 4.366970 10.143514 3.625406
Si 10.703608 1.908463 0.691500
Si 1.165939 0.294578 8.996280
Si 2.088883 7.696778 8.543442
Si 7.823026 6.238906 0.546491
Si 7.488706 9.855169 5.370049
Si 3.715311 5.901986 9.425062
Si 3.453814 9.353910 9.056565
Si 4.587959 3.887898 0.312714
Si 10.647702 9.263331 6.539222
Si 6.167397 3.209867 3.369312
Si 7.986430 8.395150 7.642060
Si 2.577766 7.937335 2.664271
Si 3.030110 2.262995 10.081975
Si 8.307207 3.058382 2.305705
Si 3.368106 10.659519 7.154717
Si 9.384237 0.064631 5.266974
Si 10.567157 4.231264 7.428654
Si 7.327295 1.644446 7.668426
Si 9.676093 3.416987 9.967227
Si 4.759114 6.363356 1.100978
Si 3.698256 1.134677 2.208079
Si 3.747400 5.463252 7.170711
Si 7.011828 6.063352 2.759622
Si 6.010836 10.722331 6.868461
Si 8.866471 2.708808 6.299391
Si 1.319411 7.435850 5.945642
Si 1.069702 3.912483 0.905207
Si 8.123254 4.472833 5.126422
Si 1.874483 3.362749 4.404651
Si 6.092768 1.003503 3.840400
Si 10.187395 5.776877 1.013500
Si 2.680033 3.015889 7.209239
Si 1.561553 0.749282 1.023105
64
Step 2650
Si 8.974229 10.764731 0.355259
Si 7.165705 1.288471 10.024362
Si 5.430751 9.205835 0.927731
Si 3.245812 3.402554 2.072355
Si 9.073462 5.832050 8.501001
Si 10.506935 9.541248 9.041526
Si 0.148414 7.068303 10.062106
Si 5.365503 0.679078 0.804224
Si 2.679622 9.385222 0.617025
Si 1.337071 9.166700 4.220111
Si 1.455552 4.276424 9.187973
Si 0.154843 5.754805 5.281709
Si 8.336738 8.741410 10.271754
Si 10.160061 1.311238 3.449638
Si 4.929941 4.934113 3.877938
Si 5.415059 7.804502 7.120992
Si 5.802934 4.808258 6.594809
Si 6.442438 8.522416 3.075051
Si 3.785465 1.880357 5.223886
Si 5.624599 7.495855 10.025798
Si 2.167929 6.412891 0.517995
Si 3.997515 8.575810 5.401782
Si 6.966114 5.610816 8.695953
Si 7.743328 0.546135 2.230910
Si 0.077325 1.377739 7.017590
Si 7.298567 3.188595 0.013532
Si 1.337319 0.769550 4.507430
Si 7.523099 6.885883 5.318527
Si 2.858370 5.601709 4.643902
Si 10.450306 4.280423 3.398997
Si 4.200164 10.030849 3.435892
Si 10.665506 1.876303 0.783175
Si 1.287007 0.389866 8.946330
Si 1.872882 7.746259 8.556630
Si 7.826064 6.262619 0.543585
Si 7.518281 9.930558 5.427669
Si 3.690367 5.796284 9.430092
Si 3.481333 9.438276 9.152172
Si 4.709349 3.767143 0.259779
Si 10.584697 9.492891 6.690166
Si 6.341242 3.131208 3.522404
Si 8.112636 8.469623 7.717452
Si 2.434845 7.842079 2.823935
Si 2.856997 2.229039 10.037409
Si 8.239637 3.076838 2.431712
Si 3.326073 10.617561 7.267450
Si 9.431663 10.843858 5.232362
Si 10.713651 4.251649 7.381234
Si 7.308617 1.539479 7.765318
Si 9.651902 3.482105 9.978704
Si 4.637008 6.259426 1.101955
Si 3.760416 1.146065 2.189537
Si 3.887615 5.320568 7.143240
Si 6.861703 6.089899 2.923556
Si 5.849948 10.738467 6.954798
Si 8.759475 2.688838 6.217637
Si 1.454234 7.446198 6.019993
Si 1.050420 3.798796 0.848248
Si 8.247944 4.607204 5.012960
Si 1.739979 3.445917 4.178601
Si 6.027205 1.100966 4.073611
Si 10.133452 5.867667 1.042580
Si 2.700949 3.061793 7.251127
Si 1.765735 0.684576 1.036809
64
Step 2660
Si 8.848713 0.066194 0.254472
Si 6.915891 1.381554 9.993651
Si 5.478087 9.094024 0.897362
Si 3.352134 3.507955 2.102872
Si 9.041913 5.661784 8.572952
Si 10.467216 9.565645 9.107649
Si 0.272453 7.182151 10.046025
Si 5.415785 0.712319 0.810793
Si 2.694498 9.292963 0.685932
Si 1.335434 9.132143 4.201407
Si 1.495422 4.424473 9.122079
Si 0.249434 5.851244 5.169450
Si 8.262620 8.773774 10.279937
Si 10.105144 1.370574 3.311036
Si 5.044675 4.843225 3.824293
Si 5.453392 7.847926 7.067507
Si 5.980828 4.738927 6.679578
Si 6.475296 8.601228 3.079224
Si 3.524767 1.848435 5.165272
Si 5.679822 7.486112 9.893832
Si 2.278626 6.492185 0.457621
Si 4.033194 8.486824 5.372116
Si 6.890104 5.575973 8.521352
Si 7.752197 0.503802 2.167162
Si 0.137704 1.402706 7.097833
Si 7.313024 3.262370 0.026548
Si 1.439877 0.806688 4.608211
Si 7.632488 6.888186 5.454257
Si 2.926174 5.490872 4.469366
Si 10.545003 4.373431 3.266151
Si 4.035592 9.839687 3.307884
Si 10.589423 1.763914 0.892914
Si 1.411222 0.534565 8.924109
Si 1.704030 7.794634 8.527773
Si 7.833243 6.267475 0.502450
Si 7.452752 9.883222 5.433891
Si 3.621795 5.666771 9.380031
Si 3.533008 9.429816 9.287757
Si 4.861694 3.641730 0.196378
Si 10.545930 9.664284 6.824392
Si 6.442017 3.211487 3.703255
Si 8.209688 8.472117 7.718199
Si 2.341016 7.715574 2.950419
Si 2.678050 2.170539 9.953647
Si 8.245865 3.102646 2.460627
Si 3.361749 10.556917 7.302680
Si 9.444997 10.800417 5.192063
Si 0.009884 4.256610 7.301445
Si 7.267423 1.422415 7.844991
Si 9.563001 3.598658 9.957820
Si 4.534655 6.159707 1.220987
Si 3.768185 1.174615 2.252360
Si 3.862018 5.204476 7.097452
Si 6.711171 6.139145 3.057507
Si 5.697695 10.768358 7.034398
Si 8.667153 2.620203 6.203815
Si 1.612938 7.528687 6.132413
Si 1.069483 3.754188 0.860958
Si 8.361065 4.749729 4.907572
Si 1.626050 3.530167 3.982456
Si 5.944943 1.087499 4.389456
Si 10.047230 5.919025 1.100530
Si 2.687033 3.072155 7.265624
Si 1.938089 0.554866 0.985794
64
Step 2670
Si 8.756410 0.234280 0.071639
Si 6.709598 1.429347 9.963182
Si 5.519915 8.959569 0.843589
Si 3.481758 3.603964 2.127289
Si 9.011454 5.507533 8.615710
Si 10.445236 9.644648 9.261526
Si 0.323222 7.210779 10.071019
Si 5.533941 0.736317 0.768152
Si 2.739456 9.127845 0.721472
Si 1.308131 9.139109 4.256312
Si 1.477724 4.567162 9.129041
Si 0.316346 5.932488 5.150615
Si 8.151333 8.782148 10.323638
Si 10.099424 1.501661 3.227986
Si 5.103635 4.790303 3.823398
Si 5.555258 7.900944 7.030699
Si 6.182020 4.669718 6.719768
Si 6.538632 8.713285 3.144913
Si 3.306875 1.736554 5.123434
Si 5.715870 7.476146 9.750814
Si 2.313463 6.592879 0.438704
Si 4.032236 8.435632 5.339949
Si 6.821111 5.597371 8.396209
Si 7.655779 0.433155 2.211900
Si 0.234325 1.495731 7.149512
Si 7.353210 3.420318 0.076468
Si 1.476912 0.823256 4.743056
Si 7.694179 6.962062 5.625752
Si 2.990297 5.451189 4.338168
Si 10.581847 4.452058 3.099229
Si 3.918474 9.655093 3.239856
Si 10.550742 1.609829 0.961643
Si 1.535348 0.656992 8.884994
Si 1.651974 7.840760 8.457463
Si 7.807269 6.267253 0.438404
Si 7.356625 9.773412 5.383590
Si 3.571690 5.542987 9.274790
Si 3.556199 9.366770 9.464744
Si 4.999241 3.535898 0.130511
Si 10.572537 9.767951 6.895300
Si 6.494149 3.226669 3.928792
Si 8.236681 8.414634 7.648636
Si 2.280821 7.487814 3.019399
Si 2.541113 2.117178 9.905375
Si 8.271913 3.093173 2.409846
Si 3.438724 10.539214 7.234916
Si 9.409773 10.797207 5.081520
Si 0.105484 4.292349 7.159886
Si 7.214636 1.307387 7.865726
Si 9.473811 3.753416 9.964560
Si 4.444065 6.057407 1.380297
Si 3.762834 1.235099 2.414496
Si 3.828666 5.123376 6.992703
Si 6.597888 6.322898 3.106296
Si 5.572570 10.796472 7.081457
Si 8.606823 2.537005 6.242424
Si 1.786519 7.635849 6.245749
Si 1.072577 3.781831 0.869385
Si 8.521040 4.864647 4.871040
Si 1.542033 3.538830 3.798473
Si 5.812203 1.019067 4.680507
Si 10.010536 5.941819 1.159299
Si 2.668946 3.060191 7.220703
Si 2.078501 0.434059 0.904061
64
Step 2680
Si 8.667143 0.434482 10.784438
Si 6.588393 1.451388 9.904035
Si 5.538955 8.815135 0.782236
Si 3.618280 3.637224 2.102901
Si 8.941750 5.367349 8.639236
Si 10.421065 9.746245 9.426101
Si 0.352810 7.166442 10.130853
Si 5.584835 0.723605 0.803508
Si 2.796651 8.931069 0.782624
Si 1.224804 9.211525 4.364296
Si 1.410288 4.712546 9.187160
Si 0.365954 6.024334 5.183924
Si 8.013529 8.762447 10.367752
Si 10.151391 1.615871 3.203917
Si 5.155394 4.688373 3.855026
Si 5.623817 7.995103 6.982659
Si 6.362617 4.537424 6.662426
Si 6.607472 8.856686 3.226148
Si 3.286145 1.658849 5.153602
Si 5.689605 7.432766 9.632948
Si 2.324586 6.703561 0.441371
Si 4.028973 8.393044 5.303227
Si 6.817482 5.626969 8.422583
Si 7.523768 0.333481 2.325712
Si 0.265731 1.631637 7.105811
Si 7.451045 3.651248 0.132906
Si 1.343844 0.734076 4.848290
Si 7.737788 7.047237 5.736443
Si 3.035207 5.489534 4.305703
Si 10.490474 4.604525 2.895521
Si 3.900743 9.520763 3.215114
Si 10.583021 1.423523 0.957138
Si 1.654634 0.616374 8.754973
Si 1.692818 7.908201 8.356910
Si 7.745075 6.271384 0.392867
Si 7.238187 9.665344 5.309180
Si 3.585435 5.462688 9.178391
Si 3.523664 9.294749 9.557160
Si 5.018821 3.455100 0.055003
Si 10.634879 9.805930 6.915906
Si 6.570911 3.186208 4.210130
Si 8.320128 8.375876 7.577242
Si 2.219081 7.181953 3.084410
Si 2.536707 2.179509 9.992464
Si 8.225829 3.086321 2.359881
Si 3.454050 10.519822 7.179466
Si 9.336944 10.831835 4.988280
Si 0.114639 4.323330 6.987551
Si 7.180868 1.205682 7.821012
Si 9.430485 3.884277 10.042180
Si 4.416565 6.030887 1.478877
Si 3.788458 1.279879 2.569042
Si 3.848142 5.055590 6.858567
Si 6.556943 6.589797 3.095229
Si 5.504577 10.821394 7.074462
Si 8.583555 2.444255 6.293602
Si 1.932505 7.742017 6.369610
Si 1.030255 3.835803 0.813316
Si 8.691499 4.955150 4.864397
Si 1.522851 3.492031 3.654980
Si 5.607480 0.942949 4.883396
Si 9.995456 5.950399 1.196632
Si 2.694198 2.996088 7.093773
Si 2.162804 0.402704 0.847487
64
Step 2690
Si 8.570806 0.616038 10.651098
Si 6.578062 1.471786 9.837297
Si 5.563060 8.705342 0.798074
Si 3.733356 3.582463 1.994742
Si 8.997133 5.352822 8.570598
Si 10.417798 9.806005 9.556904
Si 0.322828 7.084137 10.176232
Si 5.628856 0.652449 0.908479
Si 2.833814 8.806841 0.898905
Si 1.140459 9.359152 4.466103
Si 1.279729 4.807225 9.248562
Si 0.396146 6.073450 5.236755
Si 7.873454 8.714511 10.378844
Si 10.233928 1.728688 3.189908
Si 5.213543 4.601317 3.915070
Si 5.640257 8.043195 6.939916
Si 6.506033 4.369407 6.541134
Si 6.646188 9.065678 3.248282
Si 3.328092 1.669661 5.185689
Si 5.605614 7.356806 9.491681
Si 2.327680 6.762707 0.454006
Si 4.007573 8.326179 5.273408
Si 6.769124 5.711939 8.518759
Si 7.402899 0.253135 2.477845
Si 0.225778 1.784383 7.002951
Si 7.543597 3.897189 0.239203
Si 1.097678 0.636188 4.938993
Si 7.755929 7.076309 5.763397
Si 3.112034 5.535501 4.414152
Si 10.344543 4.734493 2.738045
Si 3.919557 9.400393 3.194755
Si 10.668315 1.262317 0.916240
Si 1.764775 0.487247 8.618773
Si 1.717022 8.045075 8.453250
Si 7.685272 6.283936 0.376570
Si 7.186931 9.596261 5.221239
Si 3.657648 5.406544 9.098234
Si 3.462515 9.253168 9.505878
Si 4.924987 3.447335 10.815159
Si 10.683491 9.784127 6.906400
Si 6.704399 3.090355 4.529928
Si 8.501804 8.359273 7.609419
Si 2.113647 6.914960 3.164035
Si 2.611071 2.302982 10.125700
Si 8.135723 3.068969 2.293991
Si 3.315212 10.416467 7.196262
Si 9.237214 0.044799 4.915098
Si 0.062190 4.336377 6.826823
Si 7.161866 1.110817 7.779505
Si 9.478717 3.898029 10.247057
Si 4.469760 6.066010 1.481309
Si 3.813621 1.276920 2.703286
Si 3.893815 4.991332 6.721435
Si 6.563971 6.804499 3.103594
Si 5.563324 10.859618 7.075354
Si 8.580344 2.369225 6.323730
Si 2.092352 7.795393 6.292311
Si 1.022954 3.846473 0.695215
Si 8.872075 5.016608 4.878641
Si 1.514102 3.409894 3.547095
Si 5.396199 0.891299 4.985642
Si 9.950756 6.033799 1.178944
Si 2.733052 2.969301 6.949946
Si 2.167328 0.435187 0.798138
64
Step 2700
Si 8.522481 0.770351 10.575564
Si 6.579331 1.501684 9.757412
Si 5.584134 8.632992 0.831383
Si 3.813562 3.518535 1.881675
Si 9.075033 5.367998 8.456225
Si 10.387986 9.825712 9.657865
Si 0.255845 7.052015 10.225785
Si 5.649471 0.565314 1.046785
Si 2.863426 8.780262 1.020034
Si 1.104868 9.411593 4.530419
Si 1.137345 4.863807 9.243092
Si 0.443994 6.125825 5.296041
Si 7.784452 8.701008 10.355461
Si 10.303926 1.884599 3.135600
Si 5.246390 4.550516 3.941418
Si 5.642289 8.042928 6.927000
Si 6.617690 4.312841 6.506977
Si 6.619764 9.279570 3.099119
Si 3.298956 1.680920 5.239200
Si 5.447676 7.270788 9.323669
Si 2.336267 6.725207 0.487068
Si 3.982035 8.263243 5.225652
Si 6.716613 5.745243 8.570762
Si 7.331755 0.242143 2.571831
Si 0.140443 1.921272 6.900123
Si 7.494542 4.102758 0.334785
Si 0.902113 0.652981 5.019339
Si 7.760393 7.011218 5.753892
Si 3.277400 5.478949 4.622388
Si 10.186458 4.817709 2.698876
Si 3.891860 9.290895 3.190051
Si 10.739524 1.090368 0.877564
Si 1.819485 0.437606 8.512624
Si 1.680586 8.164557 8.592038
Si 7.617931 6.332463 0.392443
Si 7.267937 9.579599 5.297402
Si 3.758470 5.366993 8.994352
Si 3.428095 9.230599 9.487346
Si 4.810794 3.458333 10.693293
Si 10.673643 9.717871 6.957487
Si 6.871113 2.956300 4.814668
Si 8.744013 8.356260 7.696007
Si 1.958055 6.789074 3.216765
Si 2.713431 2.424683 10.233715
Si 8.054656 2.977116 2.305203
Si 3.175570 10.295462 7.128828
Si 9.105500 0.150459 4.844540
Si 0.032891 4.380396 6.729112
Si 7.284841 1.106968 7.828569
Si 9.606545 3.883850 10.352622
Si 4.552767 6.115212 1.447205
Si 3.806491 1.234556 2.723665
Si 3.983536 4.901588 6.619577
Si 6.596074 6.889710 3.137575
Si 5.519639 10.813554 7.077927
Si 8.596020 2.270664 6.330483
Si 2.174475 7.805126 6.151083
Si 1.078235 3.809893 0.586450
Si 9.031305 5.059678 4.888369
Si 1.528949 3.323449 3.428285
Si 5.272503 0.882416 5.035342
Si 9.912800 6.209211 1.139898
Si 2.741248 2.973734 6.876376
Si 2.186375 0.481362 0.761680
64
Step 2710
Si 8.545889 0.856096 10.563683
Si 6.506000 1.574823 9.746476
Si 5.595465 8.567677 0.813145
Si 3.878596 3.501188 1.834883
Si 9.215917 5.427305 8.329014
Si 10.323413 9.815203 9.777315
Si 0.164272 7.078723 10.266587
Si 5.604509 0.494380 1.143011
Si 2.859793 8.837468 1.154846
Si 1.111841 9.354409 4.534117
Si 1.038806 4.878795 9.183442
Si 0.525265 6.184324 5.351436
Si 7.779084 8.783880 10.273199
Si 10.354017 2.040753 3.039846
Si 5.300043 4.516567 3.844145
Si 5.648904 8.026562 6.948274
Si 6.646187 4.392288 6.520620
Si 6.559344 9.326702 2.977106
Si 3.148062 1.633324 5.232552
Si 5.202448 7.284155 9.171552
Si 2.358273 6.610734 0.539425
Si 4.059800 8.172360 5.139950
Si 6.755382 5.685096 8.544398
Si 7.333786 0.439684 2.597907
Si 0.050341 2.043441 6.826161
Si 7.329843 4.257842 0.393019
Si 0.747982 0.800775 5.074603
Si 7.736644 6.879935 5.738923
Si 3.444928 5.409173 4.765718
Si 10.044769 4.845256 2.734563
Si 3.814772 9.245170 3.140820
Si 10.838749 0.938933 0.825795
Si 1.772217 0.491146 8.508769
Si 1.532025 8.255779 8.690204
Si 7.543532 6.405850 0.470679
Si 7.397878 9.549441 5.421487
Si 3.833236 5.310205 8.957761
Si 3.484973 9.241302 9.596794
Si 4.772057 3.493443 10.542176
Si 10.629432 9.627141 7.027760
Si 7.042637 2.799774 4.992755
Si 8.980058 8.307559 7.840212
Si 1.816545 6.760454 3.240632
Si 2.760369 2.507339 10.303167
Si 7.974457 2.839863 2.384290
Si 3.154664 10.242857 6.921894
Si 8.972437 0.266675 4.769277
Si 0.045111 4.398880 6.713249
Si 7.394548 1.063973 7.854164
Si 9.700581 3.834123 10.381081
Si 4.647235 6.110695 1.394261
Si 3.766488 1.145523 2.660499
Si 4.111658 4.769540 6.665753
Si 6.669704 6.876212 3.226966
Si 5.516909 10.777903 7.139727
Si 8.670840 2.096502 6.324176
Si 2.071690 7.775063 6.114130
Si 1.185211 3.734323 0.562280
Si 9.083183 5.105954 4.867888
Si 1.575963 3.298075 3.293773
Si 5.322477 0.904929 5.028737
Si 9.851004 6.436988 1.088539
Si 2.681794 3.013173 6.887798
Si 2.237966 0.516279 0.686575
64
Step 2720
Si 8.563922 0.900177 10.631770
Si 6.410408 1.651624 9.807872
Si 5.602135 8.486954 0.730525
Si 3.997890 3.527510 1.925446
Si 9.299033 5.550599 8.188905
Si 10.238924 9.846589 9.920072
Si 0.089681 7.074972 10.272915
Si 5.499344 0.540455 1.091108
Si 2.824926 8.909909 1.290469
Si 1.155444 9.270345 4.496566
Si 1.022257 4.907516 9.099725
Si 0.627357 6.253991 5.404971
Si 7.774035 8.925331 10.188350
Si 10.416035 2.161499 2.922878
Si 5.384756 4.500724 3.645165
Si 5.654792 7.975994 6.979088
Si 6.625947 4.534813 6.513141
Si 6.534777 9.232688 2.965754
Si 2.952576 1.544556 5.140533
Si 4.949497 7.322433 9.037790
Si 2.401939 6.442648 0.581972
Si 4.210614 8.033491 5.066892
Si 6.921690 5.648692 8.548087
Si 7.405970 0.738968 2.627018
Si 10.843567 2.175399 6.810357
Si 7.132199 4.364428 0.418807
Si 0.622463 0.914108 5.099590
Si 7.689498 6.758981 5.746285
Si 3.566252 5.355771 4.784878
Si 9.907033 4.803082 2.763779
Si 3.664434 9.248137 3.141516
Si 0.075498 0.845303 0.798903
Si 1.688597 0.544363 8.525311
Si 1.402705 8.365469 8.752731
Si 7.464093 6.489069 0.554303
Si 7.539480 9.509550 5.526655
Si 3.904297 5.280584 9.009909
Si 3.533794 9.285531 9.703994
Si 4.840699 3.569891 10.371163
Si 10.647071 9.610313 7.027629
Si 7.198612 2.684271 5.091893
Si 9.118463 8.146292 7.975989
Si 1.717393 6.764153 3.266371
Si 2.729026 2.489961 10.266377
Si 7.892418 2.717770 2.453202
Si 3.173201 10.234013 6.711797
Si 8.866100 0.315140 4.633234
Si 0.074104 4.413252 6.727399
Si 7.396399 0.966714 7.939220
Si 9.692738 3.771519 10.454861
Si 4.772451 6.104934 1.294904
Si 3.731179 1.042064 2.595652
Si 4.282441 4.607576 6.831432
Si 6.723830 6.812519 3.325901
Si 5.549082 10.770666 7.208122
Si 8.753932 1.931397 6.294455
Si 1.889925 7.740438 6.119585
Si 1.244288 3.691462 0.634751
Si 9.080357 5.134566 4.870327
Si 1.674580 3.320998 3.160292
Si 5.460154 0.931638 5.016902
Si 9.724361 6.647463 1.043987
Si 2.578971 3.023152 6.991001
Si 2.312361 0.495567 0.563513
64
Step 2730
Si 8.530835 0.987123 10.760347
Si 6.328308 1.742640 9.932090
Si 5.616150 8.482129 0.608728
Si 4.105257 3.546456 2.056523
Si 9.343164 5.694384 8.094276
Si 10.160075 9.926383 10.080592
Si 0.088199 7.048845 10.186768
Si 5.433771 0.603555 0.997795
Si 2.711609 8.927038 1.337718
Si 1.225191 9.285531 4.490815
Si 1.092501 4.970323 9.034595
Si 0.704151 6.198493 5.425077
Si 7.773681 9.081904 10.103271
Si 10.475070 2.269888 2.794863
Si 5.503066 4.514844 3.444366
Si 5.667155 7.979464 6.942946
Si 6.578573 4.642568 6.469554
Si 6.510448 9.107176 3.007392
Si 2.737821 1.459755 5.030767
Si 4.704757 7.381909 8.947358
Si 2.417048 6.256728 0.610075
Si 4.373966 7.846620 5.019881
Si 7.133687 5.604756 8.670687
Si 7.430141 0.875604 2.626865
Si 10.837863 2.290835 6.860559
Si 6.965106 4.367143 0.411317
Si 0.569839 0.916125 5.083963
Si 7.635030 6.692403 5.772123
Si 3.652297 5.341747 4.801272
Si 9.834377 4.745991 2.699197
Si 3.537609 9.303498 3.259620
Si 0.143125 0.764883 0.797564
Si 1.589545 0.549295 8.511649
Si 1.308041 8.490569 8.786207
Si 7.415256 6.619910 0.581285
Si 7.629644 9.459814 5.652560
Si 3.960179 5.272921 9.095198
Si 3.553321 9.362081 9.749389
Si 4.947267 3.618374 10.189619
Si 10.750060 9.648647 6.982142
Si 7.197444 2.738101 5.136988
Si 9.189059 7.926351 8.070485
Si 1.614104 6.717608 3.246294
Si 2.721304 2.428339 10.189108
Si 7.838448 2.762025 2.481328
Si 3.200000 10.242754 6.506671
Si 8.804844 0.275532 4.428533
Si 0.092774 4.471677 6.759966
Si 7.388184 0.875654 8.031810
Si 9.621792 3.723506 10.550359
Si 4.885032 6.099215 1.210676
Si 3.734918 0.926653 2.609364
Si 4.428908 4.423837 6.952499
Si 6.735187 6.722009 3.432107
Si 5.559634 10.711935 7.213272
Si 8.803544 1.743320 6.370541
Si 1.756431 7.800317 6.188368
Si 1.246125 3.707386 0.757272
Si 9.056321 5.176250 4.884276
Si 1.797632 3.365267 3.046604
Si 5.628512 0.932559 4.996597
Si 9.540117 6.757707 1.112549
Si 2.494902 2.985446 7.112491
Si 2.413599 0.468182 0.388817
64
Step 2740
Si 8.533795 1.145577 0.048252
Si 6.251837 1.812317 10.093151
Si 5.601875 8.599820 0.501613
Si 4.136090 3.536999 2.182842
Si 9.392061 5.790911 8.050324
Si 10.146834 9.977569 10.170861
Si 0.101541 7.049379 10.107540
Si 5.366151 0.600531 0.864277
Si 2.580007 8.846463 1.343291
Si 1.350328 9.341218 4.431126
Si 1.237967 4.980950 9.050051
Si 0.788421 6.047891 5.388244
Si 7.776570 9.207997 10.020543
Si 10.550133 2.317653 2.693045
Si 5.643292 4.528855 3.312343
Si 5.678209 8.027675 6.886603
Si 6.530171 4.745390 6.454031
Si 6.436658 9.014289 3.121510
Si 2.574674 1.426835 4.888989
Si 4.489856 7.483324 8.883153
Si 2.415826 6.059216 0.665900
Si 4.499978 7.651757 4.925114
Si 7.274375 5.548729 8.799935
Si 7.359304 0.789995 2.577872
Si 0.023058 2.415363 6.956609
Si 6.896128 4.302722 0.391603
Si 0.564355 0.831832 5.023338
Si 7.572941 6.684032 5.818905
Si 3.718762 5.349446 4.814638
Si 9.785219 4.738502 2.559729
Si 3.437662 9.331895 3.451629
Si 0.199145 0.717751 0.814963
Si 1.478835 0.515802 8.454225
Si 1.233321 8.630760 8.880538
Si 7.425414 6.762373 0.592630
Si 7.661237 9.411045 5.717767
Si 3.978432 5.238606 9.167828
Si 3.557377 9.424667 9.742306
Si 5.043230 3.615008 10.056812
Si 10.781523 9.737242 6.989025
Si 7.144223 2.900795 5.220024
Si 9.219106 7.780262 8.112954
Si 1.550539 6.654095 3.180777
Si 2.723432 2.446972 10.054450
Si 7.812333 3.009188 2.477331
Si 3.302837 10.248316 6.314581
Si 8.794878 0.198551 4.254176
Si 0.079808 4.551361 6.771347
Si 7.387092 0.827405 8.086103
Si 9.563257 3.688573 10.681876
Si 4.918411 6.114060 1.127988
Si 3.778882 0.886609 2.721797
Si 4.475394 4.254301 7.059607
Si 6.716931 6.653544 3.516227
Si 5.530502 10.619897 7.140899
Si 8.718314 1.497185 6.479224
Si 1.727094 7.911270 6.291398
Si 1.216275 3.754516 0.832950
Si 9.070799 5.185506 4.831579
Si 1.934017 3.407070 2.958767
Si 5.760351 0.864191 4.971513
Si 9.383619 6.838874 1.210475
Si 2.472847 2.907592 7.267353
Si 2.506470 0.421464 0.265437
64
Step 2750
Si 8.583878 1.340391 0.214428
Si 6.245719 1.760131 10.175993
Si 5.561748 8.796513 0.431459
Si 4.095397 3.450075 2.260561
Si 9.475514 5.723004 8.016590
Si 10.171731 9.969782 10.167549
Si 0.124170 7.060371 10.123307
Si 5.271178 0.515854 0.795389
Si 2.460018 8.707051 1.352286
Si 1.429677 9.317118 4.342682
Si 1.424456 4.936960 9.088131
Si 0.961623 5.953387 5.292118
Si 7.796911 9.355852 9.915893
Si 10.599461 2.240116 2.637287
Si 5.853063 4.555251 3.290139
Si 5.656022 8.098818 6.871132
Si 6.473746 4.828389 6.469713
Si 6.295968 8.971185 3.258705
Si 2.480624 1.443969 4.773999
Si 4.324833 7.572662 8.774240
Si 2.381485 5.904402 0.766885
Si 4.564967 7.488952 4.814192
Si 7.371563 5.457551 8.938995
Si 7.209960 0.621328 2.489434
Si 0.023627 2.458825 7.054702
Si 6.927508 4.260893 0.408520
Si 0.523009 0.754649 4.929912
Si 7.564367 6.699428 5.810201
Si 3.733809 5.391087 4.795590
Si 9.744261 4.821576 2.391480
Si 3.433438 9.291753 3.658752
Si 0.240927 0.712981 0.853110
Si 1.356944 0.447294 8.348833
Si 1.219422 8.776199 9.032370
Si 7.346227 6.883624 0.598102
Si 7.671150 9.351988 5.705106
Si 3.927947 5.273965 9.190056
Si 3.542728 9.498381 9.707235
Si 5.081666 3.573475 10.009751
Si 10.750857 9.854619 7.016561
Si 7.101494 3.080126 5.299647
Si 9.201492 7.871240 8.122836
Si 1.547721 6.584538 3.096531
Si 2.722397 2.547724 9.899573
Si 7.765925 3.309016 2.459420
Si 3.422099 10.301691 6.162733
Si 8.842752 0.129239 4.117803
Si 0.033890 4.658523 6.822102
Si 7.347488 0.758467 8.181890
Si 9.514173 3.640750 10.861366
Si 4.899980 6.164500 1.043749
Si 3.865594 0.899507 2.850825
Si 4.430944 4.100280 7.125324
Si 6.688452 6.589045 3.530270
Si 5.492342 10.532057 7.059878
Si 8.614314 1.274214 6.586508
Si 1.718687 8.014881 6.362724
Si 1.159350 3.837271 0.801217
Si 9.097824 5.146442 4.737788
Si 2.111919 3.457704 2.933941
Si 5.882686 0.767973 4.920144
Si 9.375719 6.891575 1.333420
Si 2.528044 2.828375 7.424387
Si 2.593114 0.354998 0.216524
64
Step 2760
Si 8.657320 1.510502 0.387724
Si 6.315241 1.561370 10.166329
Si 5.527435 9.045686 0.398957
Si 4.162319 3.335210 2.262532
Si 9.466121 5.698892 8.104513
Si 10.192376 9.940101 10.140728
Si 0.121946 7.048640 10.195427
Si 5.138261 0.406912 0.776766
Si 2.373739 8.543867 1.396104
Si 1.359104 9.208762 4.236784
Si 1.574304 4.905344 9.056536
Si 1.193893 5.915559 5.193428
Si 7.821635 9.513227 9.806135
Si 10.587828 2.097624 2.625427
Si 6.010650 4.547543 3.354065
Si 5.599233 8.139621 6.883185
Si 6.397202 4.901574 6.546753
Si 6.159951 9.010903 3.374560
Si 2.356192 1.518054 4.769618
Si 4.210115 7.584406 8.634444
Si 2.335233 5.773983 0.863868
Si 4.597836 7.385308 4.748368
Si 7.417596 5.346800 9.053814
Si 7.052829 0.446608 2.431327
Si 10.857576 2.532534 7.119075
Si 6.994723 4.302509 0.411904
Si 0.458382 0.698954 4.856288
Si 7.634202 6.730190 5.800282
Si 3.678762 5.350050 4.768571
Si 9.736895 5.013651 2.257605
Si 3.550847 9.219771 3.782489
Si 0.314089 0.685567 0.887084
Si 1.286910 0.395416 8.249161
Si 1.230693 8.861825 9.202685
Si 7.263248 7.009366 0.598338
Si 7.711549 9.291936 5.685072
Si 3.933206 5.392528 9.195753
Si 3.506237 9.586655 9.676491
Si 5.037579 3.610060 10.016367
Si 10.634430 9.985398 6.978898
Si 7.096131 3.211956 5.360488
Si 9.148858 8.070680 8.094179
Si 1.546579 6.500297 3.035961
Si 2.699236 2.605608 9.774813
Si 7.742254 3.536735 2.460402
Si 3.462804 10.452420 6.047091
Si 8.916152 0.102912 3.989138
Si 0.066989 4.644054 6.812350
Si 7.250123 0.625095 8.364825
Si 9.490378 3.591781 0.161512
Si 4.833958 6.224299 0.965268
Si 3.997021 0.888581 2.977070
Si 4.327381 3.993669 7.133977
Si 6.728810 6.562853 3.462719
Si 5.517320 10.465840 7.035151
Si 8.588311 1.069632 6.599684
Si 1.695151 8.095704 6.416757
Si 1.074307 3.908623 0.716695
Si 9.141189 5.084607 4.602661
Si 2.210876 3.565522 2.983885
Si 6.058349 0.682452 4.808025
Si 9.453320 6.902073 1.444669
Si 2.587982 2.695791 7.516174
Si 2.630835 0.325893 0.203041
64
Step 2770
Si 8.697722 1.547516 0.573294
Si 6.380244 1.400587 10.156456
Si 5.551006 9.210749 0.411017
Si 4.294984 3.277120 2.216065
Si 9.441292 5.770570 8.268141
Si 10.209199 9.975287 10.149825
Si 0.075499 7.017222 10.281799
Si 5.023569 0.317865 0.759630
Si 2.315323 8.424312 1.473528
Si 1.269949 9.067092 4.119857
Si 1.671629 4.928309 8.996615
Si 1.399456 5.868987 5.175370
Si 7.843543 9.665658 9.723635
Si 10.551529 1.976696 2.635969
Si 6.026262 4.483272 3.488245
Si 5.515515 8.142999 6.869534
Si 6.267404 4.984790 6.659927
Si 6.050731 9.074348 3.445488
Si 2.260734 1.624417 4.846596
Si 4.131610 7.596282 8.485557
Si 2.303333 5.727104 0.913942
Si 4.673879 7.332900 4.757763
Si 7.399506 5.246662 9.175861
Si 6.957761 0.300445 2.367882
Si 10.815541 2.526435 7.147150
Si 7.024568 4.385543 0.376377
Si 0.333628 0.642369 4.803855
Si 7.722357 6.775225 5.836522
Si 3.620194 5.186318 4.739387
Si 9.839475 5.106562 2.217429
Si 3.667206 9.185433 3.819586
Si 0.415903 0.592647 0.873975
Si 1.244314 0.358366 8.178382
Si 1.227865 8.855930 9.399488
Si 7.236439 7.163300 0.585830
Si 7.806762 9.244567 5.637872
Si 3.990727 5.573208 9.199164
Si 3.455181 9.598755 9.613699
Si 4.992070 3.603322 10.096735
Si 10.459377 10.083070 6.880723
Si 7.144394 3.234691 5.406177
Si 9.081071 8.264395 8.002142
Si 1.511702 6.434405 2.912799
Si 2.667785 2.582182 9.715535
Si 7.746630 3.640975 2.488218
Si 3.407768 10.622806 5.939438
Si 9.035846 0.122908 3.887534
Si 0.165118 4.691190 6.723170
Si 7.135660 0.423557 8.522175
Si 9.526037 3.586882 0.215526
Si 4.783708 6.256450 0.950566
Si 4.124521 0.851914 3.135723
Si 4.217960 3.947730 7.100345
Si 6.772269 6.640915 3.328394
Si 5.557605 10.422795 7.072952
Si 8.615254 0.891391 6.542519
Si 1.659774 8.191626 6.462680
Si 0.966048 3.926397 0.648694
Si 9.231651 5.029814 4.510244
Si 2.237083 3.676344 3.112759
Si 6.261206 0.652898 4.711936
Si 9.514645 7.066763 1.412243
Si 2.617840 2.494188 7.471639
Si 2.577141 0.364530 0.228409
64
Step 2780
Si 8.654615 1.453229 0.735388
Si 6.438977 1.406058 10.172064
Si 5.650590 9.175943 0.394838
Si 4.475843 3.258401 2.126885
Si 9.437226 5.894309 8.384477
Si 10.229772 10.081407 10.178956
Si 0.034715 6.982976 10.383172
Si 4.849885 0.362002 0.805518
Si 2.285381 8.417046 1.516275
Si 1.201642 8.902320 4.006757
Si 1.707657 4.954436 8.905668
Si 1.584342 5.871052 5.178318
Si 7.916547 9.687208 9.694922
Si 10.578136 1.933670 2.630875
Si 5.893285 4.413003 3.652435
Si 5.439505 8.107154 6.824447
Si 6.143915 5.088189 6.777701
Si 6.035083 9.113634 3.477062
Si 2.184937 1.745760 4.917508
Si 4.004202 7.701526 8.326976
Si 2.283640 5.698025 0.907529
Si 4.750992 7.205591 4.819199
Si 7.374628 5.185757 9.237807
Si 6.994717 0.184671 2.282695
Si 10.743203 2.487766 7.135586
Si 7.000383 4.455918 0.360302
Si 0.273105 0.580931 4.767822
Si 7.850968 6.757147 5.890021
Si 3.615396 5.001485 4.746974
Si 10.008159 5.138112 2.274333
Si 3.666218 9.175418 3.779525
Si 0.514333 0.449588 0.851429
Si 1.230255 0.292368 8.117753
Si 1.196826 8.773424 9.586521
Si 7.239297 7.309234 0.587799
Si 7.923048 9.198052 5.539773
Si 4.064593 5.686690 9.202273
Si 3.406031 9.541123 9.502826
Si 4.933137 3.585223 10.232893
Si 10.328729 10.142570 6.798775
Si 7.244066 3.210469 5.469937
Si 9.020032 8.432067 7.912439
Si 1.413980 6.447860 2.867134
Si 2.618438 2.535636 9.718060
Si 7.731721 3.672535 2.493272
Si 3.295873 10.748875 5.908205
Si 9.126620 0.144922 3.790499
Si 0.242671 4.770086 6.689039
Si 7.038377 0.251547 8.596729
Si 9.616076 3.598415 0.178922
Si 4.755283 6.282243 0.973471
Si 4.205386 0.831878 3.309885
Si 4.092324 3.930280 7.068005
Si 6.801572 6.751797 3.173765
Si 5.480253 10.400283 7.069969
Si 8.643473 0.778494 6.492652
Si 1.667343 8.357977 6.513125
Si 0.885353 3.839754 0.565839
Si 9.308353 5.018651 4.499313
Si 2.234089 3.706118 3.274751
Si 6.455164 0.699994 4.706123
Si 9.532903 7.331743 1.268087
Si 2.671477 2.290720 7.341532
Si 2.497258 0.429225 0.267156
64
Step 2790
Si 8.536742 1.355544 0.883947
Si 6.462209 1.535688 10.203335
Si 5.749020 9.053604 0.365989
Si 4.623874 3.257562 1.989723
Si 9.448656 6.056493 8.483019
Si 10.292026 10.190177 10.196945
Si 0.042499 6.896027 10.392900
Si 4.638834 0.470478 0.877799
Si 2.268756 8.522075 1.428261
Si 1.116577 8.773325 3.971257
Si 1.720612 4.977854 8.854162
Si 1.703763 5.974309 5.183858
Si 8.048163 9.527964 9.736822
Si 10.686155 2.016030 2.560549
Si 5.703216 4.350890 3.809657
Si 5.463599 8.060942 6.753434
Si 6.044508 5.196253 6.937645
Si 6.096941 9.132307 3.460851
Si 2.059576 1.886906 4.930418
Si 3.778957 7.815387 8.221499
Si 2.262230 5.614145 0.835521
Si 4.794485 6.982445 4.887811
Si 7.371860 5.172818 9.191347
Si 7.131700 0.082638 2.176524
Si 10.687286 2.421032 7.087734
Si 6.949194 4.500376 0.375190
Si 0.340308 0.507836 4.753373
Si 8.015855 6.687819 5.898449
Si 3.702837 4.833012 4.809909
Si 10.154793 5.208456 2.398758
Si 3.605224 9.208700 3.746786
Si 0.565132 0.287294 0.887411
Si 1.238390 0.176959 8.052501
Si 1.146709 8.667247 9.762461
Si 7.272722 7.440357 0.594177
Si 7.951334 9.120815 5.359389
Si 4.163775 5.740859 9.205231
Si 3.346054 9.489074 9.409882
Si 4.848081 3.554844 10.412244
Si 10.301860 10.113196 6.777982
Si 7.394340 3.175859 5.535302
Si 9.002719 8.577704 7.881054
Si 1.262074 6.451716 2.906164
Si 2.560589 2.503393 9.729921
Si 7.738631 3.681215 2.483959
Si 3.206287 10.772739 5.945217
Si 9.139406 0.120644 3.665601
Si 0.277396 4.871371 6.722120
Si 6.902612 0.191744 8.602416
Si 9.645800 3.597416 0.109924
Si 4.779041 6.262039 1.005080
Si 4.273566 0.869071 3.455022
Si 3.955327 3.931086 7.059406
Si 6.819393 6.846245 3.015475
Si 5.316968 10.392251 6.972033
Si 8.609779 0.806565 6.493695
Si 1.693519 8.585097 6.563391
Si 0.917406 3.682517 0.492616
Si 9.332823 5.017994 4.563008
Si 2.220155 3.642889 3.374209
Si 6.599360 0.812744 4.773354
Si 9.501074 7.554782 1.136049
Si 2.744467 2.152385 7.243732
Si 2.494756 0.500781 0.266487
64
Step 2800
Si 8.404457 1.316687 1.004718
Si 6.443299 1.727058 10.316530
Si 5.785429 8.972977 0.333546
Si 4.735762 3.270977 1.866595
Si 9.474596 6.209775 8.539629
Si 10.330889 10.277457 10.135866
Si 0.068091 6.731941 10.346183
Si 4.509677 0.600169 0.973757
Si 2.247091 8.650784 1.268269
Si 1.022712 8.703894 4.023382
Si 1.718547 4.989967 8.831130
Si 1.743751 6.142463 5.199260
Si 8.208757 9.353525 9.812754
Si 10.821945 2.184849 2.454345
Si 5.578356 4.272074 3.910122
Si 5.607325 8.056835 6.677800
Si 6.024506 5.298162 7.113421
Si 6.194279 9.136455 3.410982
Si 1.909436 2.088828 4.889370
Si 3.592397 7.794403 8.014482
Si 2.277983 5.518373 0.771036
Si 4.816915 6.764907 4.931873
Si 7.346040 5.197811 9.090364
Si 7.228918 10.818867 2.029921
Si 10.665883 2.365505 6.997282
Si 6.918501 4.560442 0.403982
Si 0.426220 0.402111 4.707501
Si 8.143147 6.623173 5.942826
Si 3.771796 4.652189 4.918542
Si 10.285984 5.282491 2.526195
Si 3.555360 9.248367 3.703758
Si 0.571563 0.188780 1.046537
Si 1.235075 0.076404 8.059390
Si 1.091296 8.562304 9.946078
Si 7.304256 7.503597 0.610117
Si 7.894196 9.031028 5.140227
Si 4.274485 5.812787 9.229055
Si 3.254566 9.584283 9.475361
Si 4.727300 3.522178 10.576545
Si 10.339847 10.039867 6.781895
Si 7.543786 3.188640 5.556832
Si 8.990222 8.588657 7.852936
Si 1.102707 6.397536 2.963179
Si 2.504683 2.469221 9.756120
Si 7.772764 3.673640 2.469480
Si 3.168080 10.668184 6.017071
Si 9.141933 0.056675 3.555306
Si 0.260875 4.979455 6.783145
Si 6.751648 0.129153 8.543577
Si 9.633411 3.593882 0.058420
Si 4.812456 6.206865 1.050350
Si 4.382372 0.915833 3.575192
Si 3.820061 3.958931 7.046686
Si 6.828269 6.891078 2.866335
Si 5.148620 10.364841 6.861875
Si 8.564300 0.936607 6.530464
Si 1.744266 8.760032 6.559007
Si 0.999209 3.514660 0.427719
Si 9.336076 5.006110 4.675406
Si 2.172113 3.576298 3.375929
Si 6.656648 0.957187 4.848987
Si 9.476006 7.728234 1.068176
Si 2.796320 2.075237 7.203532
Si 2.564543 0.550285 0.203636
